Name: 3-Methylfentanyl
InChIKey: MLQRZXNZHAOCHQ-UHFFFAOYSA-N
Synon: Mefentanyl
Synon: Propanamide, N-(3-methyl-1-(2-phenylethyl)-4-piperidinyl)-N-phenyl-
Synon: N-(3-Methyl-1-(2-phenylethyl)-4-piperidinyl)-N-phenylpropanamide
Synon: F 7209
Retention_index: SemiStdNP=2811 StdNP=2864
Formula: C23H30N2O
MW: 350
ExactMass: 350.235813
CAS#: 42045-86-3;  NIST#: 120459
DB#: 36644
Comments: Finnigan MAT: Toxicological Library (LIBR-TX)
Num Peaks: 18
58 50; 79 51; 95 30; 105 202; 110 39; 
119 30; 133 100; 160 301; 177 101; 203 352; 
216 248; 259 999; 260 175; 261 10; 279 19; 
293 9; 349 1; 350 1; 

