Name: 3-Methylfentanyl
InChIKey: MLQRZXNZHAOCHQ-UHFFFAOYSA-N
Synon: Mefentanyl
Synon: Propanamide, N-(3-methyl-1-(2-phenylethyl)-4-piperidinyl)-N-phenyl-
Synon: N-(3-Methyl-1-(2-phenylethyl)-4-piperidinyl)-N-phenylpropanamide
Synon: F 7209
Retention_index: SemiStdNP=2811 StdNP=2864
Formula: C23H30N2O
MW: 350
ExactMass: 350.235813
CAS#: 42045-86-3;  NIST#: 125831
DB#: 36630
Comments: Sigma Chemical Company
Num Peaks: 104
41 217; 42 554; 43 98; 44 252; 45 21; 
50 3; 51 44; 52 21; 53 20; 54 20; 
55 81; 56 53; 57 284; 58 57; 62 7; 
63 9; 65 50; 66 15; 67 37; 68 34; 
69 47; 70 48; 71 13; 72 4; 77 213; 
78 20; 79 89; 80 8; 81 9; 82 31; 
83 28; 84 58; 85 6; 89 6; 91 149; 
92 34; 93 155; 94 31; 96 25; 97 8; 
98 16; 102 5; 103 39; 104 52; 105 188; 
106 60; 107 5; 108 7; 109 16; 110 152; 
111 15; 115 6; 117 28; 118 74; 119 9; 
120 11; 122 6; 128 13; 130 59; 131 39; 
132 135; 133 28; 134 21; 135 3; 143 10; 
144 15; 145 24; 146 32; 147 4; 149 21; 
150 4; 153 11; 157 6; 158 3; 160 586; 
161 83; 162 4; 172 73; 173 25; 174 21; 
175 8; 184 3; 186 3; 187 3; 189 4; 
198 12; 199 3; 200 11; 201 22; 202 29; 
203 472; 204 83; 205 8; 216 193; 217 32; 
218 3; 243 2; 259 999; 260 155; 261 22; 
281 8; 293 4; 311 3; 348 7; 

