Name: 3-Methylfentanyl
InChIKey: MLQRZXNZHAOCHQ-UHFFFAOYSA-N
Synon: Mefentanyl
Synon: Propanamide, N-(3-methyl-1-(2-phenylethyl)-4-piperidinyl)-N-phenyl-
Synon: N-(3-Methyl-1-(2-phenylethyl)-4-piperidinyl)-N-phenylpropanamide
Synon: F 7209
Retention_index: SemiStdNP=2811 StdNP=2864
Formula: C23H30N2O
MW: 350
ExactMass: 350.235813
CAS#: 42045-86-3;  NIST#: 457776
DB#: 36634
Comments: Laura Neubauer, Cayman Chemical, Ann Arbor MI.
Num Peaks: 123
41 45; 42 124; 43 16; 44 33; 50 5; 
51 19; 52 5; 53 8; 54 6; 55 28; 
56 17; 57 129; 58 14; 62 2; 63 9; 
64 6; 65 39; 66 10; 67 14; 68 23; 
69 26; 70 20; 71 4; 73 11; 75 3; 
76 5; 77 116; 78 27; 79 46; 80 8; 
81 22; 82 16; 83 8; 84 21; 85 2; 
89 8; 90 5; 91 136; 92 22; 93 83; 
94 28; 95 6; 96 19; 97 3; 98 8; 
102 4; 103 39; 104 65; 105 154; 106 35; 
107 3; 108 9; 109 9; 110 116; 111 12; 
112 8; 115 7; 116 4; 117 25; 118 42; 
119 18; 120 10; 121 2; 128 4; 129 3; 
130 45; 131 35; 132 97; 133 20; 134 12; 
135 11; 143 4; 144 20; 145 15; 146 29; 
147 6; 148 8; 149 16; 150 8; 153 4; 
154 2; 156 5; 157 3; 158 9; 159 11; 
160 238; 161 31; 162 4; 171 2; 172 19; 
173 5; 174 16; 175 2; 177 2; 184 4; 
186 5; 187 3; 193 2; 195 2; 197 2; 
198 6; 199 6; 200 18; 201 14; 202 25; 
203 88; 204 13; 205 2; 207 10; 216 78; 
217 12; 230 4; 241 3; 253 7; 257 2; 
259 999; 260 179; 261 17; 281 5; 327 3; 
341 2; 342 2; 348 4; 

