Name: 3-Methylfentanyl
InChIKey: MLQRZXNZHAOCHQ-UHFFFAOYSA-N
Synon: Mefentanyl
Synon: Propanamide, N-(3-methyl-1-(2-phenylethyl)-4-piperidinyl)-N-phenyl-
Synon: N-(3-Methyl-1-(2-phenylethyl)-4-piperidinyl)-N-phenylpropanamide
Synon: F 7209
Retention_index: SemiStdNP=2811 StdNP=2864
Formula: C23H30N2O
MW: 350
ExactMass: 350.235813
CAS#: 42045-86-3;  NIST#: 463843
DB#: 36631
Comments: NIST Mass Spectrometry Data Center
Num Peaks: 154
15 1; 26 1; 27 13; 28 10; 29 79; 
30 10; 37 1; 38 1; 39 13; 40 3; 
41 67; 42 213; 43 27; 44 72; 45 2; 
50 3; 51 17; 52 4; 53 10; 54 8; 
55 49; 56 28; 57 152; 58 25; 59 1; 
62 1; 63 5; 64 4; 65 29; 66 6; 
67 17; 68 30; 69 36; 70 30; 71 6; 
72 1; 74 1; 75 1; 76 4; 77 126; 
78 23; 79 61; 80 10; 81 33; 82 23; 
83 11; 84 33; 85 3; 86 2; 89 5; 
90 4; 91 110; 92 17; 93 35; 94 34; 
95 8; 96 31; 97 4; 98 12; 99 1; 
100 1; 101 2; 102 4; 103 46; 104 77; 
105 235; 106 55; 107 4; 108 11; 109 15; 
110 165; 111 17; 112 2; 115 9; 116 5; 
117 35; 118 66; 119 22; 120 10; 121 1; 
122 1; 124 1; 125 1; 126 1; 127 1; 
128 4; 129 3; 130 59; 131 48; 132 151; 
133 29; 134 16; 135 2; 141 1; 142 1; 
143 4; 144 27; 145 22; 146 44; 147 6; 
148 5; 149 3; 150 10; 151 1; 153 7; 
154 2; 155 1; 156 2; 157 2; 158 9; 
159 15; 160 402; 161 50; 162 7; 163 1; 
167 1; 168 1; 170 2; 171 1; 172 27; 
173 6; 174 21; 175 3; 176 1; 184 2; 
185 1; 186 5; 187 3; 188 1; 190 1; 
198 2; 199 2; 200 17; 201 10; 202 25; 
203 98; 204 15; 205 1; 214 1; 215 1; 
216 82; 217 13; 218 1; 230 4; 231 1; 
257 1; 258 2; 259 999; 260 181; 261 17; 
262 1; 293 1; 348 1; 349 1; 

