Name: Propanamide, N-phenyl-N-[1-(3-phenyl)propyl-4-piperidinyl]-
InChIKey: CKBFKWWOUYBCRH-UHFFFAOYSA-N
Synon: Fentanyl propyl analog
Synon: N-Phenyl-N-[1-(3-phenylpropyl)-4-piperidinyl]propanamide #
Formula: C23H30N2O
MW: 350
ExactMass: 350.235813
CAS#: 59708-54-2;  NIST#: 248324
DB#: 36049
Comments: Patti Price, Georgia Bureau of Investigation, Decatur, Georgia
Num Peaks: 131
41 9; 42 73; 44 57; 50 3; 51 19; 
52 2; 53 7; 54 12; 55 55; 56 34; 
57 140; 58 16; 59 1; 63 5; 65 40; 
66 9; 67 21; 68 24; 69 26; 70 131; 
71 18; 72 3; 73 1; 76 5; 77 97; 
78 18; 79 23; 80 14; 81 8; 82 132; 
83 20; 84 14; 89 4; 91 332; 92 36; 
93 70; 94 27; 95 14; 96 458; 97 55; 
98 52; 99 2; 100 2; 102 2; 103 18; 
104 51; 105 28; 106 23; 108 21; 109 13; 
110 15; 115 33; 117 66; 118 93; 119 34; 
120 25; 121 3; 122 4; 123 16; 124 4; 
126 1; 127 2; 128 4; 130 49; 131 41; 
132 98; 133 18; 134 9; 135 1; 139 7; 
141 3; 143 2; 144 14; 145 7; 146 588; 
147 75; 148 15; 149 19; 150 13; 154 1; 
156 2; 157 1; 158 112; 159 24; 160 39; 
167 1; 172 27; 173 13; 174 75; 175 11; 
176 2; 181 1; 186 5; 187 9; 188 2; 
189 372; 190 63; 191 5; 198 11; 200 148; 
201 68; 202 207; 203 40; 204 4; 205 1; 
208 1; 215 3; 216 7; 227 1; 231 2; 
232 1; 243 3; 244 2; 245 999; 246 190; 
247 13; 249 1; 259 54; 260 7; 271 1; 
277 7; 278 3; 281 1; 293 171; 294 32; 
295 5; 321 10; 322 1; 349 5; 350 229; 
351 55; 

