Name: Propanamide, N-(2-methylphenyl)-N-[1-(2-phenylethyl)-4-piperidinyl]-
InChIKey: DPAJFOSXYXNYMA-UHFFFAOYSA-N
Synon: Fentanyl ortho tolyl analog
Synon: N-(2-Methylphenyl)-N-[1-(2-phenylethyl)-4-piperidinyl]propanamide #
Formula: C23H30N2O
MW: 350
ExactMass: 350.235813
CAS#: 2141-47-1;  NIST#: 248326
DB#: 36632
Comments: Patti Price, Georgia Bureau of Investigation, Decatur, Georgia
Num Peaks: 122
42 73; 44 44; 51 6; 52 2; 53 5; 
54 6; 55 19; 56 13; 57 88; 58 3; 
62 1; 63 4; 65 40; 66 2; 67 15; 
68 20; 69 17; 70 34; 71 4; 72 1; 
76 2; 77 40; 78 14; 79 42; 80 9; 
81 3; 82 16; 83 2; 84 5; 85 1; 
86 1; 89 8; 90 6; 91 125; 92 12; 
93 4; 94 9; 95 14; 96 90; 97 9; 
98 1; 101 1; 102 2; 103 35; 104 24; 
105 136; 106 25; 107 30; 108 10; 111 1; 
115 8; 116 3; 117 25; 118 53; 119 7; 
120 8; 121 1; 127 1; 129 3; 130 40; 
131 20; 132 43; 133 6; 134 12; 135 1; 
139 7; 140 1; 141 1; 143 5; 144 38; 
145 34; 146 57; 147 6; 148 1; 153 1; 
154 1; 158 8; 159 4; 160 753; 161 85; 
162 7; 163 9; 164 4; 167 1; 168 1; 
170 1; 171 1; 172 98; 173 16; 174 5; 
176 1; 182 1; 183 1; 184 3; 185 3; 
186 21; 187 6; 188 17; 190 1; 200 1; 
201 4; 202 4; 203 374; 204 53; 205 3; 
213 1; 214 1; 216 213; 217 30; 218 3; 
229 1; 230 5; 231 2; 257 1; 259 999; 
260 174; 261 15; 262 1; 273 1; 348 1; 
349 1; 350 1; 

