Name: .alpha.-Methyl Thiofentanyl
InChIKey: YPOXDUYRRSUFFG-UHFFFAOYSA-N
Synon: NIH 10538
Synon: N-[1-[1-methyl-2-(2-thienyl)ethyl]-4-piperidinyl]-N-phenyl-propanamide
Formula: C21H28N2OS
MW: 356
ExactMass: 356.192234
CAS#: 103963-66-2
DB#: 4599
Comments: Provided by www.caymanchem.com/Forensic.vm / Item #20821 Batch #0494865
Num Peaks: 133
41 29; 42 34; 43 6; 44 5; 45 16; 
47 1; 50 3; 51 13; 52 4; 53 19; 
54 16; 55 45; 56 194; 57 142; 58 79; 
59 4; 62 1; 63 5; 64 3; 65 16; 
66 8; 67 29; 68 21; 69 22; 70 17; 
71 15; 72 2; 73 2; 74 1; 76 3; 
77 81; 78 13; 79 14; 80 9; 81 23; 
82 51; 83 17; 84 28; 85 8; 86 1; 
89 1; 90 2; 91 29; 92 9; 93 39; 
94 26; 95 5; 96 19; 97 171; 98 16; 
99 9; 102 1; 103 5; 104 32; 105 9; 
106 14; 107 2; 108 26; 109 42; 110 213; 
111 29; 112 5; 113 1; 114 3; 115 3; 
116 2; 117 16; 118 37; 119 15; 120 20; 
121 4; 122 2; 123 10; 124 8; 125 33; 
126 3; 127 2; 128 1; 129 1; 130 44; 
131 17; 132 65; 133 11; 134 2; 135 1; 
136 1; 137 1; 138 1; 140 1; 143 1; 
144 7; 145 3; 146 160; 147 19; 148 4; 
149 6; 150 6; 151 1; 152 1; 153 9; 
154 1; 156 1; 157 1; 158 8; 159 3; 
160 4; 166 1; 172 1; 173 3; 174 1; 
175 1; 180 2; 186 1; 187 4; 188 1; 
191 1; 201 4; 202 53; 203 81; 204 12; 
205 2; 206 5; 207 4; 208 4; 216 15; 
217 2; 253 1; 257 1; 259 999; 260 183; 
261 17; 262 1; 281 1; 

