Name: .beta.-Hydroxythiofentanyl
InChIKey: GLAAETOTOUGGSB-UHFFFAOYSA-N
Synon: N-[1-[2-hydroxy-2-(2-thienyl)ethyl)-piperidinyl]-N-phenyl-propanamide
Synon: N-[1-[2-hydroxy-2-(thiophen-2-yl)ethyl]piperidin-4-yl]-N-phenylpropionamide
Formula: C20H26N2O2S
MW: 358
ExactMass: 358.1715
DB#: 4657
Comments: Provided by www.caymanchem.com/app/template/landing%2CForensic.vm / Item# 17421 batch#0466809 / SWGDRUG Monograph available
Num Peaks: 217
40 3; 41 67; 42 206; 43 46; 44 123; 
45 55; 46 1; 47 3; 49 4; 50 28; 
51 61; 52 29; 53 28; 54 30; 55 66; 
56 48; 57 254; 58 34; 59 9; 60 1; 
61 4; 62 3; 63 31; 64 20; 65 100; 
66 74; 67 48; 68 62; 69 63; 70 77; 
71 27; 72 4; 73 37; 74 15; 75 12; 
76 12; 77 232; 78 52; 79 44; 80 39; 
81 34; 82 109; 83 62; 84 62; 85 139; 
86 11; 87 9; 88 4; 89 9; 90 7; 
91 78; 92 37; 93 416; 94 84; 95 51; 
96 152; 97 154; 98 27; 99 14; 100 1; 
101 1; 102 3; 103 21; 104 94; 105 43; 
106 44; 107 9; 108 10; 109 54; 110 135; 
111 105; 112 28; 113 145; 114 11; 115 19; 
116 8; 117 50; 118 128; 119 63; 120 40; 
121 8; 122 5; 123 14; 124 4; 125 9; 
126 12; 127 5; 128 7; 129 7; 130 96; 
131 59; 132 157; 133 39; 134 12; 135 34; 
136 41; 137 16; 138 16; 139 12; 140 3; 
141 1; 142 1; 143 4; 144 22; 145 9; 
146 655; 147 94; 148 18; 149 75; 150 25; 
151 5; 152 7; 153 2; 154 6; 155 2; 
156 11; 157 11; 158 76; 159 31; 160 6; 
161 2; 162 9; 163 9; 164 23; 165 5; 
166 4; 167 1; 168 1; 169 1; 170 6; 
171 1; 172 4; 173 11; 174 4; 175 8; 
176 8; 177 6; 178 1; 179 4; 180 4; 
181 2; 182 2; 185 1; 186 2; 187 16; 
188 28; 189 402; 190 93; 191 58; 192 19; 
193 31; 194 6; 195 5; 196 1; 197 4; 
198 1; 200 3; 201 1; 202 116; 203 19; 
204 1; 205 3; 207 57; 208 16; 209 7; 
210 5; 211 1; 214 1; 216 5; 217 1; 
221 1; 223 3; 229 1; 235 2; 239 1; 
241 1; 243 3; 244 1; 245 999; 246 167; 
247 14; 249 4; 250 1; 251 3; 252 1; 
253 29; 254 7; 255 5; 266 2; 267 6; 
268 2; 269 3; 281 22; 282 5; 283 8; 
284 12; 285 2; 311 1; 313 1; 315 3; 
325 2; 326 1; 327 9; 328 2; 329 4; 
331 8; 332 2; 338 1; 340 119; 341 41; 
342 13; 343 2; 344 1; 346 3; 355 1; 
356 1; 357 2; 

