Name: cis-3-Methyl Butyryl fentanyl
InChIKey: ZPAOSKLOFZWBLS-OFNKIYASSA-N
Synon: cis-N-[3-Methyl-1-(2-phenylethyl)-4-piperidinyl]-N-phenyl-butanamide
Formula: C24H32N2O
MW: 364
ExactMass: 364.251463
CAS#: 88641-08-1
DB#: 4712
Comments: Provided by www.caymanchem.com/Forensic.vm / Item#20817 Batch#0496754
Num Peaks: 183
40 6; 41 103; 42 128; 43 196; 44 59; 
45 2; 50 8; 51 21; 52 3; 53 8; 
54 7; 55 31; 56 18; 57 15; 58 17; 
59 1; 62 2; 63 13; 64 4; 65 43; 
66 15; 67 18; 68 28; 69 40; 70 38; 
71 147; 72 4; 73 14; 74 3; 75 6; 
76 8; 77 161; 78 45; 79 68; 80 12; 
81 19; 82 22; 83 10; 84 43; 85 2; 
87 1; 88 1; 89 12; 90 8; 91 220; 
92 36; 93 74; 94 37; 95 8; 96 24; 
97 2; 98 11; 99 1; 100 1; 101 2; 
102 8; 103 47; 104 102; 105 262; 106 49; 
107 6; 108 19; 109 13; 110 142; 111 15; 
112 13; 113 1; 115 7; 116 6; 117 39; 
118 77; 119 35; 120 16; 121 1; 124 1; 
126 1; 127 1; 128 5; 129 3; 130 60; 
131 51; 132 125; 133 30; 134 23; 135 9; 
141 1; 142 1; 143 5; 144 33; 145 24; 
146 47; 147 10; 148 10; 149 2; 152 1; 
153 10; 154 2; 155 2; 156 6; 157 3; 
158 14; 159 18; 160 539; 161 72; 162 8; 
163 12; 164 4; 165 2; 167 1; 168 1; 
169 1; 170 2; 171 2; 172 41; 173 9; 
174 27; 175 4; 177 2; 178 1; 181 1; 
182 2; 184 5; 185 1; 186 6; 187 4; 
191 4; 192 2; 193 4; 194 1; 195 2; 
196 1; 197 2; 198 16; 199 11; 200 26; 
201 24; 202 41; 203 506; 204 75; 205 6; 
207 33; 208 6; 209 4; 210 1; 212 1; 
213 1; 214 1; 228 1; 230 114; 231 10; 
232 1; 244 1; 245 1; 249 1; 251 1; 
253 9; 254 2; 255 5; 257 1; 265 1; 
267 1; 268 1; 269 1; 271 6; 273 999; 
274 189; 275 18; 276 1; 281 12; 282 2; 
283 1; 293 4; 294 1; 327 2; 328 1; 
331 2; 341 2; 342 1; 343 1; 346 1; 
355 1; 362 4; 363 2; 

