Name: Fentanyl propyl acetyl analog
InChIKey: QZTILTHMQXTRFP-UHFFFAOYSA-N
Synon: N-Phenyl-N-[1-(3-phenylpropyl)-4-piperidinyl]acetamide
Synon: 1-(3-phenylpropyl)-4-(N-acetanilido)piperidine
Formula: C22H28N2O
MW: 336
ExactMass: 336.220163
CAS#: 90736-10-0
DB#: 2097
Comments: DEA WRL
Num Peaks: 94
14 27; 16 19; 17 7; 26 10; 34 14; 
39 45; 41 67; 42 199; 43 477; 44 72; 
49 8; 50 20; 51 93; 54 41; 55 72; 
56 57; 63 24; 65 139; 66 25; 67 69; 
68 34; 69 35; 70 195; 71 20; 74 1; 
76 14; 77 259; 78 37; 79 57; 80 22; 
82 198; 83 24; 84 23; 89 25; 90 32; 
91 547; 92 82; 93 67; 94 27; 95 25; 
96 435; 97 42; 98 53; 103 43; 104 129; 
105 49; 106 43; 108 10; 109 6; 115 56; 
116 12; 117 139; 118 246; 119 56; 124 15; 
130 101; 131 76; 132 90; 133 30; 134 4; 
136 27; 143 17; 144 41; 145 36; 146 539; 
147 59; 148 12; 158 115; 159 38; 160 54; 
163 8; 165 9; 169 4; 172 18; 173 33; 
174 67; 175 20; 176 12; 187 15; 188 391; 
189 239; 190 33; 198 11; 200 120; 201 70; 
202 36; 231 999; 232 163; 233 13; 245 61; 
293 76; 294 15; 336 85; 337 22; 

