Name: Benzyl Carfentanil
InChIKey: QKRGHVDSVANHAD-UHFFFAOYSA-N
Formula: C23H28N2O3
MW: 380
ExactMass: 380.209993
CAS#: 61085-72-1
DB#: 4524
Comments: Provided by www.caymanchem.com/app/template/landing%2CForensic.vm / Item# 20350 Batch# 0491177
Num Peaks: 166
40 1; 41 10; 42 50; 43 4; 44 3; 
45 4; 50 5; 51 19; 52 5; 53 13; 
54 7; 55 11; 56 26; 57 132; 58 4; 
59 16; 61 1; 62 2; 63 9; 64 7; 
65 70; 66 9; 67 4; 68 3; 69 2; 
70 1; 73 6; 74 1; 75 2; 76 5; 
77 80; 78 17; 79 5; 80 25; 81 13; 
82 16; 83 4; 85 1; 89 15; 90 14; 
91 999; 92 92; 93 51; 94 12; 95 2; 
96 14; 97 2; 102 1; 103 9; 104 20; 
105 16; 106 12; 107 1; 108 14; 109 2; 
110 3; 112 3; 113 28; 114 3; 115 5; 
116 4; 117 39; 118 74; 119 29; 120 32; 
121 4; 124 1; 126 3; 127 2; 128 4; 
129 3; 130 33; 131 13; 132 44; 133 8; 
134 9; 135 3; 137 2; 138 2; 139 1; 
140 651; 141 53; 142 8; 143 7; 144 28; 
145 10; 146 108; 147 35; 148 4; 149 7; 
150 24; 151 2; 153 1; 154 2; 155 1; 
156 3; 157 1; 158 10; 159 4; 160 1; 
162 1; 168 1; 170 3; 171 8; 172 388; 
173 66; 174 6; 175 1; 176 2; 177 4; 
178 11; 179 1; 185 1; 186 1; 187 4; 
188 2; 189 1; 190 3; 191 1; 195 2; 
199 3; 200 3; 201 1; 202 12; 203 18; 
204 4; 207 6; 208 2; 209 1; 216 179; 
217 27; 218 4; 219 1; 228 1; 230 71; 
231 231; 232 62; 233 15; 234 7; 235 1; 
236 1; 243 1; 248 2; 249 2; 253 2; 
263 17; 264 4; 265 11; 266 2; 273 1; 
275 1; 276 1; 281 2; 289 2; 295 1; 
303 2; 321 23; 322 5; 323 26; 324 6; 
325 1; 327 1; 349 3; 351 1; 380 5; 
381 1; 

