Name: .alpha.-Methyl Butyryl fentanyl
InChIKey: IPIGJTVNMCMXMT-UHFFFAOYSA-N
Synon: N-[1-(1-methyl-2-phenylethyl)-4-piperidinyl]-N-phenyl-butanamide
Formula: C24H32N2O
MW: 364
ExactMass: 364.251463
DB#: 4617
Comments: Provided by www.caymanchem.com/Forensic.vm / Item# 20818 Batch# 0496093
Num Peaks: 125
41 69; 42 37; 43 154; 44 10; 50 3; 
51 12; 52 4; 53 5; 54 12; 55 41; 
56 165; 57 25; 58 62; 59 3; 62 1; 
63 6; 64 3; 65 34; 66 6; 67 23; 
68 18; 69 18; 70 14; 71 97; 72 6; 
73 1; 74 1; 75 1; 76 3; 77 69; 
78 14; 79 12; 80 9; 81 16; 82 50; 
83 16; 84 26; 85 2; 89 7; 90 5; 
91 257; 92 28; 93 32; 94 19; 95 3; 
96 14; 97 2; 98 2; 102 2; 103 11; 
104 33; 105 17; 106 13; 107 2; 108 23; 
109 36; 110 163; 111 17; 112 3; 115 16; 
116 5; 117 31; 118 37; 119 25; 120 18; 
121 2; 125 1; 126 1; 127 1; 128 4; 
129 3; 130 43; 131 18; 132 52; 133 9; 
134 3; 135 1; 143 1; 144 9; 145 4; 
146 137; 147 16; 148 4; 153 12; 154 2; 
155 1; 156 1; 157 1; 158 6; 159 4; 
160 2; 161 1; 163 3; 164 2; 172 1; 
173 3; 174 5; 175 1; 184 1; 185 1; 
186 2; 187 5; 188 1; 191 1; 198 3; 
199 3; 200 9; 201 6; 202 21; 203 80; 
204 11; 207 1; 216 19; 217 3; 230 12; 
231 2; 243 1; 253 1; 255 1; 257 1; 
271 2; 273 999; 274 191; 275 19; 276 1; 

