Name: Acetyl-.alpha.-methyl fentanyl
InChIKey: OKTLVZBUKMRPLL-UHFFFAOYSA-N
Synon: N-phenyl-N-(1-(1-phenylpropan-2-yl)piperidin-4-yl)acetamide
Synon: N-[1-(1-methyl-2-phenethyl)-4-piperidinyl]-N-phenylacetamide
Synon: .alpha.-Methyl Acetyl fentanyl
Formula: C22H28N2O
MW: 336
ExactMass: 336.220163
DB#: 4655
Comments: Provided by www.caymanchem.com/Forensic.vm / Item# 20816 Batch# 0496094
Num Peaks: 110
41 27; 42 31; 43 135; 44 8; 50 3; 
51 13; 52 4; 53 5; 54 12; 55 33; 
56 162; 57 20; 58 55; 59 1; 62 1; 
63 7; 64 4; 65 41; 66 7; 67 23; 
68 16; 69 13; 70 10; 71 7; 72 2; 
73 1; 74 1; 75 1; 76 3; 77 71; 
78 13; 79 11; 80 9; 81 15; 82 41; 
83 11; 84 15; 85 1; 89 7; 90 5; 
91 230; 92 24; 93 24; 94 15; 95 2; 
96 10; 97 2; 98 2; 100 1; 102 1; 
103 11; 104 28; 105 14; 106 12; 107 1; 
108 17; 109 24; 110 147; 111 14; 112 2; 
115 15; 116 5; 117 29; 118 45; 119 16; 
120 13; 121 1; 128 1; 129 2; 130 34; 
131 15; 132 53; 133 8; 134 2; 135 4; 
136 4; 143 1; 144 8; 145 3; 146 94; 
147 11; 148 2; 153 3; 156 1; 157 1; 
158 11; 159 3; 160 4; 172 1; 173 2; 
174 4; 175 1; 184 1; 186 2; 187 3; 
188 81; 189 10; 198 2; 199 2; 200 6; 
201 4; 202 29; 203 23; 204 3; 243 1; 
245 999; 246 172; 247 16; 248 1; 321 1; 

