Name: Benzyl Acrylfentanyl
InChIKey: BANFGBDVLADRGR-UHFFFAOYSA-N
Synon: N-Phenyl-N-[1-(phenylmethyl)-4-piperidinyl]-2-propenamide
Formula: C21H24N2O
MW: 320
ExactMass: 320.188864
CAS#: 1956368-29-8
DB#: 4664
Comments: Provided by www.caymanchem.com/Forensic.vm / Item# 22660 Batch#0508720
Num Peaks: 123
40 2; 41 14; 42 35; 43 3; 44 3; 
50 6; 51 22; 52 6; 53 7; 54 10; 
55 273; 56 28; 57 3; 62 2; 63 15; 
64 10; 65 97; 66 9; 67 7; 68 6; 
69 9; 70 3; 73 1; 74 2; 75 2; 
76 6; 77 93; 78 16; 79 6; 80 11; 
81 6; 82 424; 83 25; 84 2; 89 22; 
90 21; 91 999; 92 95; 93 30; 94 7; 
95 2; 96 34; 97 3; 98 1; 102 1; 
103 8; 104 42; 105 14; 106 18; 107 1; 
108 2; 110 2; 115 6; 116 4; 117 35; 
118 80; 119 41; 120 39; 121 3; 128 3; 
129 3; 130 28; 131 14; 132 74; 133 12; 
134 18; 135 3; 136 24; 137 2; 142 1; 
143 4; 144 33; 145 27; 146 149; 147 25; 
148 11; 149 1; 156 2; 157 1; 158 37; 
159 7; 160 4; 161 1; 170 56; 171 11; 
172 209; 173 165; 174 47; 175 7; 183 3; 
184 2; 185 2; 186 4; 187 2; 188 7; 
189 4; 198 1; 199 2; 200 8; 201 4; 
202 1; 207 1; 208 1; 211 15; 212 3; 
214 1; 215 3; 216 1; 229 34; 230 5; 
236 3; 237 3; 243 1; 248 1; 249 8; 
250 2; 263 1; 265 239; 266 49; 267 5; 
319 2; 320 14; 321 3; 

