Name: Acetyl fentanyl 4-methylphenethyl analog-d5
InChIKey: BBMRIHXVAUNKEV-DKFMXDSJSA-N
Synon: N-[1-[2-(4-methylphenyl)ethyl]-4-piperidinyl]-N-phenyl-d5-acetamide
Formula: C22H23D5N2O
MW: 341
ExactMass: 341.251547
DB#: 4556
Comments: Provided by www.caymanchem.com/app/template/landing%2CForensic.vm / Item #19594 Batch #0483303
Num Peaks: 153
41 38; 42 155; 43 178; 44 83; 45 3; 
50 3; 51 8; 52 6; 53 11; 54 24; 
55 20; 56 18; 57 13; 58 2; 59 1; 
62 1; 63 6; 64 2; 65 19; 66 6; 
67 26; 68 30; 69 30; 70 49; 71 9; 
72 2; 73 1; 74 1; 75 1; 76 3; 
77 66; 78 25; 79 55; 80 17; 81 15; 
82 114; 83 17; 84 9; 85 1; 86 1; 
89 7; 90 3; 91 79; 92 8; 93 11; 
94 20; 95 31; 96 129; 97 29; 98 54; 
99 17; 100 1; 101 1; 102 6; 103 51; 
104 36; 105 202; 106 23; 107 5; 108 8; 
109 44; 110 18; 111 23; 112 2; 115 24; 
116 6; 117 56; 118 23; 119 112; 120 17; 
121 13; 122 34; 123 82; 124 21; 125 8; 
126 2; 127 1; 128 2; 129 3; 130 7; 
131 7; 132 3; 133 4; 134 36; 135 31; 
136 38; 137 85; 138 13; 139 6; 140 8; 
141 5; 142 1; 143 2; 144 9; 145 3; 
146 7; 147 3; 148 10; 149 8; 150 17; 
151 517; 152 58; 153 6; 154 1; 156 1; 
157 1; 158 3; 159 1; 160 2; 161 1; 
162 5; 163 91; 164 15; 165 7; 166 1; 
170 1; 172 2; 174 9; 175 1; 176 3; 
177 1; 178 2; 179 1; 190 1; 191 3; 
192 15; 193 309; 194 168; 195 20; 196 2; 
197 1; 198 5; 199 3; 200 12; 201 3; 
202 2; 207 8; 208 3; 218 1; 220 2; 
234 1; 236 999; 237 156; 238 13; 253 4; 
298 1; 327 1; 331 1; 332 1; 339 3; 
340 1; 341 1; 346 1; 

