Name: Ocfentanil-d5
InChIKey: NYISTOZKVCMVEL-ATTUOBAHSA-N
Synon: N-(2-fluorophenyl)-2-methoxy-N-[1-(2-phenylethyl-d5)-4-piperidinyl]-acetamide
Formula: C22H22D5FN2O2
MW: 375
ExactMass: 375.23704
DB#: 4553
Comments: Provided by www.caymanchem.com/app/template/landing%2CForensic.vm / Item #19599 Batch #0485502
Num Peaks: 199
41 44; 42 166; 43 31; 44 63; 45 498; 
46 13; 47 1; 49 2; 50 9; 51 11; 
52 15; 53 16; 54 23; 55 39; 56 30; 
57 45; 58 39; 59 4; 60 1; 61 1; 
62 5; 63 14; 64 11; 65 13; 66 6; 
67 27; 68 51; 69 55; 70 96; 71 8; 
72 3; 73 14; 74 6; 75 31; 76 8; 
77 24; 78 9; 79 22; 80 38; 81 41; 
82 74; 83 123; 84 33; 85 4; 86 1; 
88 4; 89 5; 90 16; 91 10; 92 3; 
93 9; 94 29; 95 85; 96 346; 97 51; 
98 24; 99 2; 100 24; 101 2; 102 9; 
103 5; 104 4; 105 4; 106 10; 107 28; 
108 30; 109 89; 110 260; 111 63; 112 8; 
113 1; 114 1; 116 4; 117 4; 118 4; 
119 1; 120 4; 121 9; 122 75; 123 63; 
124 199; 125 23; 126 3; 127 1; 128 14; 
129 3; 130 10; 131 3; 132 5; 133 12; 
134 20; 135 36; 136 44; 137 45; 138 24; 
139 20; 140 3; 143 1; 144 3; 146 2; 
147 6; 148 43; 149 44; 150 89; 151 15; 
152 7; 153 72; 154 20; 155 1; 156 4; 
157 2; 158 1; 159 2; 160 1; 161 7; 
162 6; 163 9; 164 44; 165 18; 166 8; 
167 3; 170 1; 171 1; 174 1; 175 3; 
176 173; 177 28; 178 34; 179 5; 180 3; 
183 86; 184 10; 185 2; 186 2; 187 2; 
188 2; 189 10; 190 14; 191 30; 192 22; 
193 50; 194 10; 195 3; 196 1; 197 5; 
203 1; 204 3; 205 28; 206 16; 207 58; 
208 157; 209 23; 210 2; 211 1; 219 13; 
220 2; 221 2; 223 1; 233 1; 234 1; 
235 1; 236 137; 237 22; 238 2; 249 1; 
250 2; 251 3; 253 17; 254 4; 255 1; 
263 1; 265 1; 266 1; 267 1; 268 3; 
269 5; 270 1; 279 999; 280 171; 281 25; 
282 5; 284 2; 295 1; 313 1; 315 1; 
325 1; 327 4; 328 1; 329 1; 331 4; 
332 1; 333 1; 341 4; 342 1; 343 1; 
344 1; 346 2; 373 4; 374 1; 

