Name: Acetanilide, N-(1-phenethyl-4-piperidyl)-
InChIKey: FYIUUQUPOKIKNI-UHFFFAOYSA-N
Synon: Acetamide, N-phenyl-N-[1-(2-phenylethyl)-4-piperidinyl]-
Synon: Fentanyl acetyl analog
Synon: N-Phenyl-N-[1-(2-phenylethyl)-4-piperidinyl]acetamide #
Synon: Acetyl fentanyl
Retention_index: SemiStdNP=2757 StdNP=2765
Formula: C21H26N2O
MW: 322
ExactMass: 322.204514
CAS#: 3258-84-2;  NIST#: 457371
DB#: 35341
Comments: Laura Neubauer, Cayman Chemical, Ann Arbor MI.
Num Peaks: 105
40 3; 41 27; 42 114; 43 180; 44 55; 
45 2; 50 7; 51 18; 52 6; 53 6; 
54 8; 55 17; 56 16; 57 10; 58 2; 
61 2; 62 3; 63 11; 64 9; 65 55; 
66 14; 67 23; 68 22; 69 21; 70 33; 
71 3; 73 5; 74 4; 75 3; 77 134; 
78 32; 79 50; 80 12; 81 6; 82 18; 
83 3; 84 5; 86 2; 89 13; 91 219; 
92 26; 93 72; 94 29; 95 18; 96 107; 
97 12; 98 6; 101 2; 102 6; 103 44; 
104 70; 105 141; 106 35; 107 3; 115 7; 
116 5; 117 35; 118 85; 119 21; 120 8; 
127 2; 128 3; 130 58; 131 46; 132 96; 
133 17; 134 8; 135 18; 136 5; 139 4; 
143 4; 144 17; 146 460; 147 57; 148 8; 
149 2; 156 4; 158 78; 159 15; 160 17; 
161 2; 170 3; 171 2; 172 5; 173 3; 
182 3; 184 11; 185 8; 186 20; 188 300; 
189 163; 190 20; 191 2; 202 8; 207 8; 
229 3; 231 999; 232 158; 233 12; 251 2; 
253 3; 279 2; 281 5; 320 4; 321 2; 

