Name: Acetanilide, N-(1-phenethyl-4-piperidyl)-
InChIKey: FYIUUQUPOKIKNI-UHFFFAOYSA-N
Synon: Acetamide, N-phenyl-N-[1-(2-phenylethyl)-4-piperidinyl]-
Synon: Fentanyl acetyl analog
Synon: N-Phenyl-N-[1-(2-phenylethyl)-4-piperidinyl]acetamide #
Synon: Acetyl fentanyl
Retention_index: SemiStdNP=2757 StdNP=2765
Formula: C21H26N2O
MW: 322
ExactMass: 322.204514
CAS#: 3258-84-2;  NIST#: 463670
DB#: 35342
Comments: NIST Mass Spectrometry Data Center
Num Peaks: 138
15 4; 26 1; 27 9; 28 12; 29 10; 
30 7; 38 1; 39 19; 40 3; 41 50; 
42 253; 43 162; 44 162; 45 5; 50 5; 
51 29; 52 7; 53 12; 54 17; 55 33; 
56 33; 57 20; 58 3; 61 1; 62 2; 
63 8; 64 5; 65 46; 66 9; 67 33; 
68 32; 69 33; 70 53; 71 5; 72 3; 
73 1; 74 2; 75 2; 76 6; 77 175; 
78 33; 79 69; 80 14; 81 6; 82 32; 
83 6; 84 8; 85 1; 86 2; 87 1; 
89 9; 90 7; 91 152; 92 23; 93 39; 
94 37; 95 25; 96 158; 97 20; 98 2; 
101 1; 102 5; 103 63; 104 90; 105 257; 
106 56; 107 5; 108 2; 109 1; 110 1; 
111 1; 115 11; 116 7; 117 49; 118 156; 
119 31; 120 13; 121 1; 126 2; 127 2; 
128 4; 129 6; 130 99; 131 66; 132 159; 
133 23; 134 14; 135 5; 136 9; 137 1; 
139 6; 140 1; 141 1; 142 1; 143 5; 
144 24; 145 16; 146 921; 147 105; 148 13; 
149 1; 155 1; 156 3; 157 3; 158 157; 
159 28; 160 30; 161 5; 162 1; 168 1; 
169 1; 170 1; 171 1; 172 6; 173 3; 
174 2; 175 1; 176 1; 182 1; 184 5; 
185 3; 186 25; 187 17; 188 441; 189 238; 
190 29; 191 2; 202 8; 203 1; 229 2; 
230 3; 231 999; 232 163; 233 15; 234 1; 
279 2; 320 1; 321 1; 

