Name: Acetanilide, N-(1-phenethyl-4-piperidyl)-
InChIKey: FYIUUQUPOKIKNI-UHFFFAOYSA-N
Synon: Acetamide, N-phenyl-N-[1-(2-phenylethyl)-4-piperidinyl]-
Synon: Fentanyl acetyl analog
Synon: N-Phenyl-N-[1-(2-phenylethyl)-4-piperidinyl]acetamide #
Synon: Acetyl fentanyl
Retention_index: SemiStdNP=2757 StdNP=2765
Formula: C21H26N2O
MW: 322
ExactMass: 322.204514
CAS#: 3258-84-2;  NIST#: 64208
DB#: 35336
Comments: J. D. HENION, CORNELL UNIVERSITY, ITHACA, NY, USA
Num Peaks: 90
39 39; 41 123; 42 504; 43 346; 44 282; 
45 11; 51 47; 52 13; 53 20; 55 82; 
57 93; 58 11; 63 11; 65 53; 67 51; 
68 59; 69 56; 70 70; 71 34; 73 26; 
75 13; 77 222; 78 42; 79 102; 80 17; 
81 19; 82 31; 83 31; 84 15; 85 19; 
89 10; 91 110; 92 19; 93 40; 94 37; 
95 42; 96 142; 97 26; 99 12; 103 51; 
105 267; 106 61; 109 11; 111 14; 115 17; 
116 11; 117 56; 118 162; 119 19; 120 17; 
128 18; 129 26; 130 102; 131 83; 132 135; 
133 27; 134 15; 135 17; 136 12; 141 14; 
144 19; 146 789; 147 87; 148 17; 156 15; 
158 163; 159 34; 160 35; 161 16; 167 13; 
169 14; 172 11; 175 11; 181 11; 182 13; 
185 10; 186 36; 188 416; 189 224; 190 34; 
191 10; 197 13; 198 10; 202 13; 207 10; 
223 10; 231 999; 232 152; 233 21; 259 34; 

