Name: Fentanyl ortho methylphenyl acetyl analog
InChIKey: QTVCZKXTTIXGRA-UHFFFAOYSA-N
Synon: 1-[2-(2-methylphenyl)ethyl]-4-(N-acetanilido)piperidine
Formula: C22H28N2O
MW: 336
ExactMass: 336.220163
DB#: 2089
Comments: DEA WRL
Num Peaks: 107
13 3; 15 12; 16 7; 17 7; 18 5; 
19 2; 21 4; 25 6; 27 12; 28 41; 
29 7; 32 15; 37 4; 39 37; 40 9; 
41 49; 42 222; 43 311; 44 81; 45 8; 
50 8; 51 38; 53 17; 55 36; 56 36; 
57 20; 58 1; 60 3; 62 2; 64 12; 
65 50; 66 14; 67 22; 68 37; 69 25; 
70 53; 71 9; 74 1; 75 3; 77 250; 
78 47; 79 88; 80 16; 81 11; 82 30; 
83 7; 84 11; 87 2; 89 11; 90 3; 
91 131; 92 24; 93 56; 94 39; 95 25; 
96 99; 97 19; 99 2; 102 8; 103 76; 
104 122; 105 192; 106 50; 107 1; 108 2; 
114 1; 115 42; 116 14; 117 100; 118 180; 
119 141; 120 23; 127 2; 128 9; 130 99; 
131 80; 132 142; 133 21; 136 10; 139 11; 
141 3; 143 7; 144 23; 146 708; 147 73; 
148 16; 156 3; 158 228; 159 38; 160 6; 
161 2; 172 5; 173 3; 184 2; 188 452; 
189 227; 190 28; 191 2; 200 12; 201 4; 
202 10; 203 5; 231 999; 232 140; 233 13; 
306 1; 336 3; 

