Name: Fentanyl meta methylphenyl acetyl analog
InChIKey: RROIUIGBEXMCGR-UHFFFAOYSA-N
Synon: 1-[2-(3-methylphenyl)ethyl]-4-(N-acetanilido)piperidine
Formula: C22H28N2O
MW: 336
ExactMass: 336.220163
DB#: 2088
Comments: DEA WRL
Num Peaks: 95
12 20; 16 10; 17 20; 18 18; 21 6; 
23 16; 27 21; 28 10; 30 5; 33 7; 
39 29; 40 14; 41 14; 42 132; 43 310; 
44 71; 45 4; 51 34; 53 26; 55 38; 
57 35; 58 14; 63 16; 64 11; 65 66; 
66 15; 67 22; 68 18; 69 34; 70 47; 
71 9; 77 257; 78 58; 79 89; 81 6; 
82 26; 83 9; 84 11; 89 9; 91 121; 
92 32; 93 34; 94 37; 95 18; 96 126; 
97 17; 100 2; 103 80; 104 114; 105 184; 
106 47; 107 5; 111 4; 115 46; 116 12; 
117 130; 118 172; 119 148; 120 29; 127 10; 
129 10; 130 89; 131 89; 132 152; 133 31; 
134 3; 136 5; 142 6; 144 27; 146 702; 
147 79; 148 25; 155 5; 156 9; 158 189; 
159 41; 160 23; 170 7; 171 4; 173 13; 
174 17; 179 6; 184 9; 187 16; 188 481; 
189 243; 190 24; 200 17; 202 15; 205 2; 
231 999; 232 161; 233 15; 241 3; 253 3; 

