Name: Acetyl fentanyl 4-methylphenethyl analog
InChIKey: BBMRIHXVAUNKEV-UHFFFAOYSA-N
Synon: N-[1-[2-(4-methylphenyl)ethyl]-4-piperidinyl-N-phenylacetamide
Synon: Fentanyl para methylphenyl acetyl analog
Formula: C22H28N2O
MW: 336
ExactMass: 336.220163
CAS#: 1071703-95-1
DB#: 4261
Comments: Provided by www.caymanchem.com/app/template/landing%2CForensic.vm / Item #9002271  Lot #0465307
Num Peaks: 136
41 60; 42 249; 43 167; 44 159; 45 2; 
50 4; 51 24; 52 7; 53 14; 54 14; 
55 26; 56 26; 57 18; 58 2; 59 1; 
62 2; 63 6; 64 5; 65 29; 66 10; 
67 31; 68 25; 69 27; 70 42; 71 2; 
72 2; 73 4; 74 3; 75 1; 76 4; 
77 128; 78 23; 79 36; 80 10; 81 5; 
82 26; 83 5; 84 7; 86 1; 87 1; 
89 5; 90 4; 91 92; 92 16; 93 57; 
94 31; 95 20; 96 105; 97 19; 98 9; 
99 1; 101 1; 102 5; 103 36; 104 58; 
105 113; 106 35; 107 5; 108 1; 112 1; 
115 22; 116 7; 117 61; 118 109; 119 123; 
120 16; 121 1; 125 1; 126 1; 127 2; 
128 2; 129 5; 130 57; 131 42; 132 83; 
133 12; 134 3; 135 10; 136 5; 139 3; 
141 1; 142 1; 143 4; 144 19; 145 12; 
146 512; 147 53; 148 11; 149 2; 154 1; 
156 3; 157 2; 158 90; 159 18; 160 6; 
166 2; 170 2; 172 7; 173 2; 174 8; 
180 1; 182 1; 184 1; 186 1; 187 11; 
188 332; 189 175; 190 22; 191 3; 193 3; 
195 2; 197 1; 198 5; 199 3; 200 13; 
201 2; 202 13; 205 1; 206 1; 207 9; 
209 1; 215 1; 216 1; 229 2; 231 999; 
232 167; 233 14; 234 2; 235 1; 253 5; 
268 1; 293 2; 329 2; 331 2; 333 1; 
334 3; 

