Name: 4-Anilino-N-Phenethylpiperidine
InChIKey: ZCMDXDQUYIWEKB-UHFFFAOYSA-N
Synon: Despropionyl fentanyl
Synon: ANPP
Synon: 4-Piperidinamine, N-phenyl-1-(2-phenylethyl)-
Synon: N-Phenyl-1-(2-phenylethyl)-4-piperidinamine #
Retention_index: SemiStdNP=2528/2/2
Formula: C19H24N2
MW: 280
ExactMass: 280.193949
CAS#: 21409-26-7;  NIST#: 335007
DB#: 147846
Comments: Drug Lab
Num Peaks: 84
40 4; 41 38; 42 193; 43 19; 44 327; 
45 8; 50 6; 51 30; 52 11; 53 11; 
54 16; 55 26; 56 32; 57 14; 58 4; 
62 1; 63 11; 64 6; 65 59; 66 18; 
67 10; 68 21; 69 12; 70 70; 71 5; 
72 1; 73 1; 74 1; 75 2; 77 130; 
78 31; 79 54; 80 10; 81 4; 82 15; 
83 3; 84 6; 89 8; 91 143; 92 29; 
93 38; 95 69; 96 160; 97 21; 98 2; 
102 5; 103 45; 104 65; 105 180; 106 53; 
107 4; 115 10; 116 4; 117 48; 118 184; 
119 39; 120 12; 128 2; 129 4; 130 59; 
131 41; 132 125; 133 16; 134 9; 143 2; 
144 18; 146 999; 147 115; 148 16; 149 1; 
158 5; 159 3; 160 34; 161 5; 173 1; 
184 3; 185 3; 186 4; 187 9; 189 618; 
190 83; 191 4; 280 36; 281 8; 

