Name: N-Phenyl-1-(2-phenylethyl)-4-piperidinamine, N-heptafluorobutyryl-
InChIKey: DJCCQSDWVLBBAR-UHFFFAOYSA-N
Retention_index: SemiStdNP=2496
Formula: C23H23F7N2O
MW: 476
ExactMass: 476.16986
NIST#: 463798
DB#: 261581
Comments: NIST Mass Spectrometry Data Center
Num Peaks: 152
15 1; 27 4; 28 4; 29 5; 30 3; 
38 1; 39 9; 40 1; 41 28; 42 114; 
43 18; 44 86; 45 2; 50 3; 51 14; 
52 3; 53 9; 54 11; 55 34; 56 18; 
57 8; 58 1; 62 1; 63 5; 64 4; 
65 30; 66 3; 67 14; 68 22; 69 43; 
70 13; 71 2; 74 1; 75 1; 76 4; 
77 107; 78 17; 79 33; 80 7; 81 3; 
82 25; 83 3; 84 3; 85 1; 86 1; 
89 5; 90 5; 91 108; 92 16; 93 6; 
94 28; 95 19; 96 113; 97 30; 98 2; 
100 3; 101 1; 102 3; 103 33; 104 48; 
105 151; 106 17; 107 2; 108 4; 109 2; 
110 1; 111 1; 115 6; 116 4; 117 62; 
118 25; 119 27; 120 19; 121 2; 122 1; 
123 1; 127 3; 128 5; 129 11; 130 72; 
131 48; 132 40; 133 6; 134 4; 139 38; 
140 3; 141 1; 142 1; 143 3; 144 33; 
145 33; 146 14; 147 2; 148 1; 150 1; 
154 1; 155 1; 156 2; 157 2; 158 12; 
159 5; 160 15; 161 2; 168 1; 169 12; 
170 1; 171 1; 172 2; 173 6; 174 1; 
182 1; 183 2; 184 3; 185 2; 186 29; 
187 12; 188 43; 189 6; 190 1; 192 4; 
196 2; 210 1; 215 1; 222 1; 269 1; 
270 1; 272 45; 273 5; 279 1; 289 3; 
290 2; 291 2; 292 1; 302 3; 307 1; 
314 15; 315 2; 324 1; 327 1; 328 1; 
341 1; 342 244; 343 39; 344 4; 365 1; 
384 1; 385 999; 386 178; 387 18; 388 1; 
474 1; 475 1; 

