Name: N-Phenyl-1-(2-phenylethyl)-4-piperidinamine, N-pentafluoropropionyl-
InChIKey: AVLLLMKVWILCKA-UHFFFAOYSA-N
Retention_index: SemiStdNP=2488
Formula: C22H23F5N2O
MW: 426
ExactMass: 426.173054
NIST#: 463799
DB#: 255324
Comments: NIST Mass Spectrometry Data Center
Num Peaks: 148
15 1; 27 6; 28 6; 29 6; 30 3; 
38 1; 39 13; 40 2; 41 35; 42 145; 
43 22; 44 102; 45 3; 50 4; 51 18; 
52 4; 53 12; 54 14; 55 40; 56 21; 
57 9; 58 1; 62 1; 63 7; 64 5; 
65 36; 66 4; 67 17; 68 26; 69 38; 
70 14; 71 2; 74 1; 75 1; 76 4; 
77 129; 78 21; 79 40; 80 8; 81 3; 
82 28; 83 4; 84 4; 85 1; 86 2; 
89 6; 90 5; 91 121; 92 18; 93 6; 
94 29; 95 21; 96 124; 97 32; 98 2; 
100 1; 101 1; 102 4; 103 38; 104 54; 
105 166; 106 19; 107 2; 108 4; 109 2; 
110 1; 111 1; 115 7; 116 4; 117 62; 
118 27; 119 44; 120 21; 121 3; 122 1; 
123 1; 127 3; 128 6; 129 11; 130 78; 
131 53; 132 41; 133 7; 134 4; 135 1; 
139 22; 140 2; 141 1; 142 1; 143 4; 
144 31; 145 32; 146 15; 147 3; 148 1; 
150 1; 152 1; 154 1; 155 1; 156 2; 
157 2; 158 15; 159 5; 160 15; 161 2; 
167 6; 170 1; 171 1; 172 3; 173 5; 
174 1; 176 1; 184 3; 185 2; 186 22; 
187 10; 188 45; 189 7; 190 1; 215 1; 
221 1; 222 52; 223 5; 239 3; 240 2; 
250 1; 252 4; 253 1; 264 17; 265 2; 
274 1; 277 1; 278 1; 279 1; 290 1; 
291 2; 292 269; 293 40; 294 3; 307 1; 
315 1; 334 1; 335 999; 336 175; 337 16; 
338 1; 424 1; 425 1; 

