Name: N-Phenyl-1-(2-phenylethyl)-4-piperidinamine, N-trifluoroacetyl-
InChIKey: IHILHYCMSJXOSL-UHFFFAOYSA-N
Retention_index: SemiStdNP=2534
Formula: C21H23F3N2O
MW: 376
ExactMass: 376.176249
NIST#: 463800
DB#: 243567
Comments: NIST Mass Spectrometry Data Center
Num Peaks: 148
15 1; 26 1; 27 6; 28 7; 29 7; 
30 3; 38 1; 39 15; 40 2; 41 40; 
42 168; 43 22; 44 102; 45 3; 50 5; 
51 22; 52 5; 53 13; 54 15; 55 39; 
56 21; 57 8; 58 1; 62 1; 63 8; 
64 6; 65 40; 66 5; 67 19; 68 26; 
69 43; 70 12; 71 1; 74 1; 75 2; 
76 4; 77 132; 78 22; 79 42; 80 9; 
81 3; 82 27; 83 3; 84 3; 85 1; 
86 2; 89 7; 90 6; 91 124; 92 18; 
93 6; 94 23; 95 18; 96 116; 97 26; 
98 2; 101 1; 102 4; 103 41; 104 54; 
105 159; 106 19; 107 2; 108 3; 109 1; 
110 2; 111 1; 115 7; 116 4; 117 50; 
118 24; 119 20; 120 17; 121 2; 122 1; 
123 1; 124 1; 126 1; 127 3; 128 6; 
129 10; 130 75; 131 54; 132 40; 133 6; 
134 4; 135 1; 138 1; 139 11; 140 2; 
141 1; 144 27; 145 26; 146 11; 147 2; 
148 1; 152 1; 154 2; 155 1; 156 2; 
157 1; 158 21; 159 6; 160 14; 161 2; 
166 1; 168 1; 170 1; 171 1; 172 77; 
173 9; 174 2; 180 1; 182 1; 184 3; 
185 2; 186 18; 187 8; 188 15; 189 7; 
190 3; 194 2; 200 1; 202 6; 203 1; 
214 17; 215 2; 224 1; 226 1; 227 2; 
228 1; 240 1; 241 1; 242 305; 243 42; 
244 3; 256 1; 265 1; 279 1; 283 1; 
284 2; 285 999; 286 166; 287 14; 288 1; 
357 2; 374 1; 375 1; 

