Name: N-Phenyl-1-(2-phenylethyl)-4-piperidinamine, N-trimethylsilyl-
InChIKey: YBBTVYMJFYDACK-UHFFFAOYSA-N
Retention_index: SemiStdNP=2485
Formula: C22H32N2Si
MW: 352
ExactMass: 352.233475
NIST#: 463801
DB#: 234893
Comments: NIST Mass Spectrometry Data Center
Num Peaks: 171
15 2; 26 2; 27 7; 28 10; 29 12; 
30 5; 31 4; 38 1; 39 16; 40 2; 
41 48; 42 279; 43 48; 44 381; 45 91; 
46 7; 47 3; 50 6; 51 20; 52 5; 
53 11; 54 17; 55 45; 56 36; 57 23; 
58 18; 59 75; 60 7; 61 3; 62 1; 
63 7; 64 3; 65 40; 66 6; 67 13; 
68 35; 69 29; 70 159; 71 14; 72 10; 
73 898; 74 77; 75 36; 76 6; 77 126; 
78 31; 79 81; 80 11; 81 7; 82 20; 
83 10; 84 27; 85 7; 86 8; 87 1; 
89 9; 90 7; 91 168; 92 20; 93 16; 
94 12; 95 17; 96 610; 97 63; 98 6; 
99 1; 100 18; 101 4; 102 29; 103 70; 
104 157; 105 396; 106 47; 107 10; 108 5; 
109 3; 110 2; 112 2; 114 12; 115 10; 
116 99; 117 39; 118 43; 119 29; 120 18; 
121 13; 122 6; 123 87; 126 4; 127 2; 
128 11; 129 5; 130 85; 131 63; 132 155; 
133 29; 134 49; 135 27; 136 7; 137 2; 
140 1; 141 2; 142 2; 143 6; 144 17; 
145 11; 146 81; 147 11; 148 14; 149 41; 
150 43; 151 7; 152 3; 154 3; 155 2; 
156 4; 157 4; 158 17; 159 13; 160 116; 
161 19; 162 8; 163 2; 164 4; 165 10; 
166 4; 167 3; 168 1; 171 1; 172 6; 
173 4; 174 7; 175 3; 176 22; 177 4; 
178 5; 184 4; 185 7; 186 28; 187 62; 
188 48; 189 22; 190 32; 191 8; 192 7; 
193 1; 202 12; 203 3; 204 21; 205 5; 
206 2; 216 3; 217 6; 218 614; 219 122; 
220 31; 221 3; 231 4; 232 1; 245 2; 
259 4; 260 3; 261 999; 262 227; 263 52; 
264 7; 309 1; 337 29; 338 8; 339 1; 
352 2; 

