Name: Propanamide, N-Phenyl-N-[1-(2-(4-methylphenyl)ethyl)-4-piperidinyl]-
InChIKey: AGSRCZOBGTWFFY-UHFFFAOYSA-N
Synon: Fentanyl 1-para methylphenyl analog
Synon: N-(1-[2-(4-Methylphenyl)ethyl]-4-piperidinyl)-N-phenylpropanamide #
Formula: C23H30N2O
MW: 350
ExactMass: 350.235813
CAS#: 90736-18-8;  NIST#: 248323
DB#: 36050
Comments: Patti Price, Georgia Bureau of Investigation, Decatur, Georgia
Num Peaks: 111
42 64; 44 45; 51 6; 53 3; 54 3; 
55 15; 56 11; 57 75; 58 2; 60 1; 
62 1; 63 3; 64 2; 65 13; 66 4; 
67 11; 68 16; 69 18; 70 26; 71 2; 
75 1; 76 3; 77 76; 78 14; 79 21; 
80 6; 81 2; 82 11; 83 4; 84 4; 
85 1; 89 3; 90 2; 91 63; 92 8; 
93 46; 94 21; 95 14; 96 74; 97 11; 
98 1; 100 1; 102 2; 103 25; 104 39; 
105 68; 106 18; 107 2; 115 16; 116 3; 
117 47; 118 55; 119 109; 120 14; 122 1; 
127 1; 128 2; 129 4; 130 47; 131 37; 
132 78; 133 10; 134 1; 139 6; 140 1; 
141 1; 143 3; 144 15; 145 9; 146 663; 
147 72; 148 11; 150 3; 156 1; 157 1; 
158 99; 159 14; 160 7; 161 1; 171 1; 
172 5; 173 1; 174 10; 175 1; 184 1; 
185 1; 187 7; 188 5; 189 342; 190 59; 
191 4; 198 2; 199 3; 200 12; 201 2; 
202 173; 203 25; 204 1; 207 1; 216 4; 
217 1; 230 1; 232 1; 245 999; 246 179; 
247 14; 248 1; 293 1; 348 1; 349 1; 
350 1; 

