Name: N-Methyl Norcarfentanil
InChIKey: KKEVIELPQLXPRR-UHFFFAOYSA-N
Synon: 1-Methyl-4-[(1-oxopropyl)phenylamino]-4-piperidinecarboxylic acid, methyl ester
Formula: C17H24N2O3
MW: 304
ExactMass: 304.178692
DB#: 4731
Comments: Provided by www.caymanchem.com/Forensic.vm / Item#20784 Batch#0499280
Num Peaks: 161
41 20; 42 154; 43 54; 44 70; 45 15; 
50 7; 51 31; 52 8; 53 36; 54 12; 
55 23; 56 16; 57 210; 58 20; 59 57; 
60 1; 61 1; 62 2; 63 10; 64 13; 
65 30; 66 15; 67 11; 68 15; 69 6; 
70 235; 71 153; 72 9; 73 2; 74 3; 
75 3; 76 10; 77 174; 78 28; 79 9; 
80 13; 81 75; 82 21; 83 8; 84 4; 
85 6; 88 1; 89 5; 90 6; 91 52; 
92 18; 93 127; 94 124; 95 21; 96 999; 
97 78; 98 4; 99 2; 100 1; 101 1; 
102 13; 103 12; 104 26; 105 23; 106 18; 
107 2; 108 3; 109 1; 110 3; 111 5; 
112 7; 113 118; 114 12; 115 6; 116 6; 
117 56; 118 97; 119 27; 120 8; 121 1; 
122 13; 123 18; 124 12; 125 1; 126 7; 
127 3; 128 7; 129 3; 130 56; 131 22; 
132 38; 133 6; 134 1; 137 4; 138 10; 
139 3; 140 599; 141 50; 142 8; 143 11; 
144 41; 145 14; 146 146; 147 17; 148 5; 
149 23; 150 16; 151 1; 152 16; 153 5; 
154 124; 155 699; 156 141; 157 20; 158 19; 
159 9; 160 3; 161 1; 162 2; 164 2; 
165 1; 167 1; 168 2; 169 1; 170 1; 
171 1; 172 6; 173 3; 174 2; 175 1; 
176 4; 177 8; 178 23; 179 2; 185 2; 
186 2; 187 48; 188 11; 189 53; 190 13; 
191 2; 197 2; 199 2; 200 9; 201 1; 
202 27; 203 4; 204 2; 207 2; 215 1; 
216 2; 217 1; 219 9; 220 1; 231 1; 
234 1; 245 25; 246 5; 247 63; 248 10; 
249 1; 273 8; 274 1; 275 1; 304 11; 
305 2; 

