Name: Sufentanil-d5
InChIKey: GGCSSNBKKAUURC-WNWXXORZSA-N
Synon: N-[4-(Methoxymethyl)-1-[2-(2-thienyl)ethyl]-4-piperidinyl]-N-phenyl-propanamide-2,2,3,3,3-d5
Formula: C22H25D5N2O2S
MW: 391
ExactMass: 391.234182
CAS#: 1884682-16-9
DB#: 4854
Comments: Provided by www.caymanchem.com/app/template/landing%2CForensic.vm / Item#18571 Batch#0517245
Num Peaks: 149
41 21; 42 90; 43 7; 44 4; 45 71; 
46 2; 50 3; 51 10; 52 4; 53 21; 
54 6; 55 13; 56 10; 57 5; 58 6; 
59 3; 60 2; 61 11; 62 98; 63 8; 
64 5; 65 20; 66 11; 67 35; 68 10; 
69 14; 70 13; 71 14; 72 2; 73 2; 
76 3; 77 90; 78 19; 79 53; 80 13; 
81 34; 82 18; 83 14; 84 7; 85 11; 
86 6; 91 16; 92 8; 93 17; 94 78; 
95 29; 96 64; 97 110; 98 10; 99 8; 
100 2; 103 4; 104 9; 105 8; 106 18; 
107 117; 108 78; 109 22; 110 168; 111 127; 
112 13; 113 5; 115 2; 116 2; 117 10; 
118 15; 119 16; 120 6; 121 3; 122 2; 
123 4; 124 4; 125 3; 126 9; 127 4; 
128 3; 129 4; 130 51; 131 11; 132 13; 
133 6; 134 2; 135 3; 136 12; 137 93; 
138 24; 139 6; 140 216; 141 22; 142 7; 
143 5; 144 18; 145 17; 146 19; 147 14; 
148 3; 149 2; 152 5; 153 3; 154 11; 
155 8; 156 4; 157 3; 158 54; 159 24; 
160 4; 161 3; 166 7; 167 3; 170 3; 
171 2; 172 3; 173 5; 174 5; 175 6; 
176 4; 177 2; 187 39; 188 9; 189 2; 
190 3; 191 3; 192 12; 193 2; 200 2; 
201 9; 202 10; 203 2; 204 2; 206 6; 
207 5; 208 2; 231 2; 232 3; 233 3; 
234 10; 235 4; 236 9; 237 2; 238 12; 
239 2; 251 3; 286 3; 293 93; 294 999; 
295 197; 296 21; 297 2; 346 4; 

