Name: Alfentanil
InChIKey: IDBPHNDTYPBSNI-UHFFFAOYSA-N
Synon: N-[1-[2-(4-Ethyl-5-oxo-4,5-dihydro-1H-tetraazol-1-yl)ethyl]-4-(methoxymethyl)-4-piperidinyl]-N-phenylpropanamide
Formula: C21H32N6O3
MW: 416
ExactMass: 416.25359
CAS#: 71195-58-9
DB#: 2198
Comments: DEA SFL1
Num Peaks: 196
38 1; 39 5; 40 2; 41 14; 42 48; 
43 5; 44 7; 45 34; 50 1; 51 5; 
52 1; 53 6; 54 5; 55 15; 56 29; 
57 45; 58 3; 59 1; 63 2; 64 2; 
65 9; 66 6; 67 17; 68 5; 69 9; 
70 22; 71 8; 72 2; 76 1; 77 32; 
78 5; 79 21; 80 8; 81 15; 82 15; 
83 12; 84 3; 85 3; 86 2; 87 1; 
91 10; 92 6; 93 75; 94 29; 95 11; 
96 29; 97 8; 98 2; 99 32; 100 3; 
103 3; 104 7; 105 5; 106 59; 107 7; 
108 76; 109 12; 110 58; 111 10; 112 2; 
113 2; 114 1; 115 4; 116 1; 117 9; 
118 20; 119 6; 120 6; 121 14; 122 14; 
123 6; 124 8; 125 21; 126 43; 127 4; 
128 3; 129 1; 130 28; 131 7; 132 56; 
133 8; 134 2; 135 1; 136 1; 137 1; 
138 12; 139 3; 140 159; 141 17; 142 4; 
143 4; 144 15; 145 7; 146 63; 147 8; 
148 3; 149 15; 150 8; 151 54; 152 8; 
153 16; 154 9; 155 1; 156 3; 157 4; 
158 46; 159 12; 160 3; 162 2; 163 9; 
164 3; 165 26; 166 3; 167 1; 168 1; 
170 124; 171 11; 172 4; 173 13; 174 3; 
175 2; 176 7; 177 1; 179 5; 181 1; 
183 1; 184 4; 185 2; 186 2; 187 19; 
188 4; 190 2; 193 1; 194 1; 195 21; 
196 32; 197 39; 198 5; 199 3; 200 3; 
201 15; 202 20; 203 2; 207 2; 214 1; 
216 1; 222 173; 223 21; 224 1; 228 1; 
229 16; 230 2; 231 1; 233 2; 235 96; 
236 42; 237 5; 238 1; 242 6; 243 1; 
244 1; 245 4; 246 2; 250 1; 252 1; 
257 4; 258 1; 259 1; 260 1; 265 7; 
266 35; 268 371; 269 52; 270 4; 275 3; 
281 1; 289 999; 290 166; 291 18; 292 1; 
295 58; 296 9; 297 1; 299 1; 302 41; 
303 11; 304 1; 313 6; 314 1; 315 1; 
359 25; 360 5; 371 9; 372 2; 387 1; 
401 3; 

