Name: Remifentanil
InChIKey: ZTVQQQVZCWLTDF-UHFFFAOYSA-N
Synon: 4-(Methoxycarbonyl)-4-[(1-oxopropyl)phenylamino]-1-piperidinepropanoic acid, methyl ester
Synon: GG 084
Synon: GI-87084B
Formula: C20H28N2O5
MW: 376
ExactMass: 376.199821
CAS#: 132875-61-7
DB#: 4689
Comments: Provided by www.caymanchem.com/Forensic.vm / Item#19291 Batch#0507288
Num Peaks: 229
41 21; 42 135; 43 20; 44 7; 45 29; 
50 5; 51 17; 52 5; 53 26; 54 17; 
55 70; 56 61; 57 334; 58 16; 59 106; 
60 4; 61 1; 62 2; 63 7; 64 9; 
65 21; 66 10; 67 16; 68 14; 69 12; 
70 27; 71 7; 72 11; 73 4; 74 6; 
75 2; 76 7; 77 146; 78 23; 79 9; 
80 35; 81 56; 82 52; 83 9; 84 46; 
85 17; 86 4; 87 38; 88 7; 89 4; 
90 4; 91 46; 92 16; 93 80; 94 70; 
95 17; 96 80; 97 11; 98 4; 99 2; 
100 29; 101 3; 102 3; 103 11; 104 26; 
105 18; 106 27; 107 5; 108 26; 109 9; 
110 20; 111 4; 112 7; 113 102; 114 32; 
115 11; 116 82; 117 62; 118 101; 119 32; 
120 14; 121 2; 122 8; 123 1; 124 7; 
125 4; 126 23; 127 4; 128 15; 129 8; 
130 109; 131 26; 132 48; 133 7; 134 4; 
135 2; 136 11; 137 5; 138 17; 139 5; 
140 241; 141 31; 142 209; 143 117; 144 55; 
145 16; 146 82; 147 10; 148 5; 149 14; 
150 21; 151 2; 152 25; 153 19; 154 124; 
155 21; 156 18; 157 8; 158 50; 159 21; 
160 4; 161 1; 162 5; 163 1; 164 3; 
165 2; 166 32; 167 10; 168 999; 169 109; 
170 13; 171 7; 172 6; 173 11; 174 5; 
175 2; 176 4; 177 10; 178 23; 179 3; 
180 2; 182 1; 183 3; 184 3; 185 5; 
186 12; 187 91; 188 18; 189 6; 190 12; 
191 5; 192 2; 193 1; 194 4; 195 11; 
196 6; 197 7; 198 4; 199 6; 200 3; 
201 4; 202 26; 203 4; 204 3; 205 1; 
207 7; 208 1; 209 1; 210 3; 212 458; 
213 55; 214 8; 215 5; 216 3; 217 1; 
218 2; 219 2; 224 3; 226 127; 227 620; 
228 130; 229 18; 230 3; 231 2; 232 1; 
233 1; 234 3; 239 2; 240 1; 243 33; 
244 8; 245 3; 246 4; 247 21; 248 5; 
249 1; 253 1; 257 1; 259 30; 260 7; 
261 24; 262 4; 269 2; 271 3; 272 5; 
274 7; 275 21; 276 3; 281 3; 282 1; 
285 5; 286 1; 288 1; 289 1; 291 4; 
301 1; 303 310; 304 59; 305 7; 317 21; 
318 5; 319 67; 320 13; 321 1; 327 1; 
331 1; 341 1; 344 1; 345 8; 346 2; 
347 2; 355 1; 376 7; 377 2; 

