Name: cis-3-Methyl Thiofentanyl
InChIKey: SRARDYUHGVMEQI-FXAWDEMLSA-N
Synon: cis-N-[3-methyl-1-(2-thienyl)ethyl]-4-piperidinyl]-N-phenyl-propanamide
Formula: C21H28N2OS
MW: 356
ExactMass: 356.192234
CAS#: 742029-96-5
DB#: 4900
Comments: Provided by www.caymanchem.com/app/template/landing%2CForensic.vm / Item#22240 Batch#0511953
Num Peaks: 152
40 2; 41 57; 42 145; 43 22; 44 64; 
45 27; 47 2; 50 5; 51 20; 52 6; 
53 28; 54 10; 55 36; 56 24; 57 237; 
58 35; 59 3; 62 2; 63 9; 64 7; 
65 28; 66 18; 67 42; 68 35; 69 38; 
70 42; 71 18; 72 2; 73 10; 74 3; 
75 3; 76 7; 77 180; 78 36; 79 21; 
80 11; 81 21; 82 28; 83 11; 84 51; 
85 18; 86 2; 89 3; 90 4; 91 37; 
92 13; 93 62; 94 38; 95 12; 96 31; 
97 258; 98 29; 99 14; 100 2; 102 2; 
103 11; 104 67; 105 31; 106 34; 107 5; 
108 19; 109 29; 110 137; 111 162; 112 19; 
113 8; 115 7; 116 5; 117 39; 118 96; 
119 30; 120 14; 121 4; 122 2; 123 3; 
124 3; 125 2; 127 2; 128 4; 129 3; 
130 64; 131 50; 132 162; 133 31; 134 7; 
135 7; 136 4; 137 2; 138 4; 140 4; 
143 5; 144 33; 145 26; 146 34; 147 7; 
148 3; 149 7; 150 6; 152 3; 153 8; 
154 4; 156 4; 157 3; 158 14; 159 19; 
160 618; 161 77; 162 10; 166 4; 170 2; 
171 2; 172 66; 173 13; 174 8; 180 8; 
181 2; 186 3; 187 5; 188 2; 192 2; 
193 2; 195 2; 197 2; 201 15; 202 14; 
203 440; 204 68; 205 8; 206 12; 207 8; 
208 9; 209 2; 214 2; 216 261; 217 41; 
218 4; 230 3; 241 3; 243 3; 253 6; 
254 2; 255 2; 257 4; 259 999; 260 174; 
261 17; 281 2; 299 2; 327 4; 341 2; 
354 3; 355 2; 

