Name: trans-3-Methyl Thiofentanyl
InChIKey: SRARDYUHGVMEQI-PXNSSMCTSA-N
Synon: N-((3R,4R)-3-methyl-1-(2-(thiophen-2-yl)ethyl)piperidin-4-yl)-N-phenylpropionamide
Formula: C21H28N2OS
MW: 356
ExactMass: 356.192234
DB#: 4916
Comments: Provided by www.caymanchem.com/app/template/landing%2CForensic.vm / Item#22241 Batch#0511045
Num Peaks: 116
41 37; 42 110; 43 14; 44 27; 45 17; 
50 3; 51 11; 52 3; 53 19; 54 6; 
55 28; 56 16; 57 145; 58 17; 59 2; 
63 5; 64 4; 65 18; 66 12; 67 27; 
68 25; 69 28; 70 23; 71 11; 76 4; 
77 109; 78 21; 79 14; 80 7; 81 25; 
82 19; 83 8; 84 25; 85 10; 86 2; 
90 2; 91 21; 92 9; 93 45; 94 28; 
95 9; 96 23; 97 168; 98 20; 99 9; 
103 6; 104 39; 105 17; 106 23; 107 3; 
108 13; 109 19; 110 112; 111 99; 112 11; 
113 5; 115 4; 116 3; 117 20; 118 44; 
119 16; 120 7; 121 2; 122 2; 123 2; 
128 2; 130 34; 131 27; 132 88; 133 17; 
134 4; 136 2; 138 2; 140 2; 143 3; 
144 16; 145 13; 146 28; 147 4; 148 2; 
149 6; 150 7; 152 2; 153 5; 154 2; 
156 2; 157 2; 158 7; 159 11; 160 260; 
161 33; 162 3; 166 2; 172 20; 173 5; 
174 7; 180 4; 186 2; 187 2; 201 8; 
202 9; 203 112; 204 18; 205 3; 206 8; 
207 2; 208 8; 209 2; 216 89; 217 14; 
230 5; 257 3; 259 999; 260 178; 261 18; 
354 2; 

