Name: Sufentanil
InChIKey: GGCSSNBKKAUURC-UHFFFAOYSA-N
Formula: C22H30N2O2S
MW: 386
ExactMass: 386.202799
CAS#: 56030-54-7
DB#: 176
Comments: DEA SWL
Num Peaks: 128
40 1; 41 44; 42 208; 43 17; 44 8; 
45 137; 46 2; 50 3; 51 18; 52 5; 
53 33; 54 13; 55 32; 56 26; 57 114; 
58 12; 59 6; 63 5; 64 5; 65 25; 
66 15; 67 42; 68 13; 69 15; 70 20; 
71 16; 72 1; 73 2; 76 1; 77 104; 
78 21; 79 67; 80 14; 81 48; 82 25; 
83 19; 84 7; 85 14; 86 9; 91 24; 
92 10; 93 100; 94 44; 95 17; 96 98; 
97 72; 98 9; 99 9; 100 2; 103 6; 
104 17; 106 235; 107 22; 108 91; 109 27; 
110 213; 111 188; 112 20; 113 7; 115 1; 
116 1; 117 16; 118 33; 119 9; 120 8; 
123 4; 124 7; 125 1; 126 19; 127 2; 
128 9; 129 2; 130 68; 131 11; 132 176; 
133 20; 134 3; 135 1; 136 4; 137 1; 
138 25; 140 327; 141 33; 142 9; 143 6; 
144 29; 145 16; 146 39; 147 6; 148 6; 
149 17; 150 13; 152 6; 156 2; 158 81; 
159 27; 160 9; 162 5; 166 9; 170 4; 
171 1; 172 5; 173 8; 174 3; 175 6; 
176 5; 182 1; 183 1; 187 37; 188 7; 
190 3; 192 13; 201 15; 202 6; 206 4; 
207 1; 208 1; 229 4; 233 2; 236 7; 
238 14; 246 1; 281 2; 285 2; 289 999; 
290 205; 291 24; 341 5; 

