Name: Lofentanil
InChIKey: IMYHGORQCPYVBZ-NLFFAJNJSA-N
Synon: Methyl (3S,4R)-3-methyl-1-(2-phenylethyl)-4-[phenyl(propionyl)amino]piperidine-4-carboxylate
Formula: C25H32N2O3
MW: 408
ExactMass: 408.241293
CAS#: 61380-40-3
DB#: 2814
Comments: DEA SFL1
Num Peaks: 176
39 4; 41 10; 42 82; 43 5; 44 2; 
45 4; 50 1; 51 6; 52 1; 53 3; 
54 3; 55 8; 56 6; 57 52; 58 2; 
59 11; 63 2; 64 1; 65 10; 66 3; 
67 16; 68 6; 69 4; 70 8; 71 2; 
72 1; 73 1; 76 2; 77 53; 78 9; 
79 28; 80 4; 81 6; 82 8; 83 4; 
84 6; 85 1; 89 1; 90 1; 91 34; 
92 6; 93 29; 94 13; 95 15; 96 8; 
97 1; 98 1; 99 2; 100 1; 101 1; 
102 1; 103 21; 104 23; 105 122; 106 31; 
107 4; 108 11; 109 6; 110 56; 111 6; 
112 2; 113 1; 114 1; 115 3; 116 1; 
117 14; 118 18; 119 5; 120 3; 122 1; 
124 6; 125 2; 126 3; 127 27; 128 38; 
129 4; 130 47; 131 13; 132 50; 133 5; 
134 15; 135 1; 136 4; 138 2; 139 2; 
140 22; 141 3; 142 1; 143 7; 144 21; 
145 5; 146 8; 147 1; 148 2; 149 5; 
150 3; 151 1; 152 3; 153 2; 154 27; 
155 3; 156 7; 157 3; 158 13; 159 27; 
160 33; 161 4; 162 2; 166 1; 167 6; 
168 60; 169 12; 170 6; 171 3; 172 50; 
173 11; 174 25; 175 3; 176 1; 178 1; 
184 4; 185 3; 186 2; 187 1; 188 2; 
189 5; 190 6; 191 1; 198 5; 199 2; 
200 32; 201 145; 202 21; 203 2; 204 2; 
211 4; 212 1; 214 1; 216 18; 217 3; 
218 1; 228 1; 229 2; 230 2; 233 11; 
234 2; 242 1; 244 5; 245 2; 248 2; 
257 87; 258 24; 259 5; 260 7; 261 34; 
262 6; 274 8; 275 1; 285 4; 286 1; 
288 5; 289 112; 290 21; 291 3; 293 5; 
294 1; 317 999; 318 283; 319 33; 320 3; 
349 19; 350 5; 351 1; 377 2; 406 3; 
407 1; 

