Name: Fentanyl ortho tolyl acetyl analog
InChIKey: GRDWUDZBHWHLSH-UHFFFAOYSA-N
Synon: Acetamide, N-(2-methylphenyl)-N-[1-(2-phenylethyl)-4-piperidinyl]-
Synon: 1-(2-phenylethyl)-4-(2-methyl-N-acetanilido)piperidine
Formula: C22H28N2O
MW: 336
ExactMass: 336.220163
DB#: 2094
Comments: DEA WRL
Num Peaks: 102
11 7; 14 23; 15 11; 19 6; 22 7; 
27 24; 28 97; 29 14; 30 12; 36 11; 
39 27; 40 4; 41 56; 42 220; 43 399; 
44 87; 45 10; 46 7; 50 11; 51 29; 
53 33; 54 18; 56 29; 57 24; 58 13; 
62 8; 63 30; 65 172; 66 12; 67 45; 
68 48; 69 29; 70 50; 77 195; 78 61; 
79 98; 80 16; 82 47; 86 4; 89 29; 
90 24; 91 414; 92 58; 93 11; 94 20; 
95 28; 96 167; 97 27; 102 19; 103 83; 
104 43; 105 249; 106 50; 107 35; 108 24; 
109 2; 110 5; 115 13; 116 18; 117 78; 
118 161; 119 31; 120 24; 130 108; 131 37; 
132 134; 133 17; 134 20; 139 8; 141 4; 
143 17; 144 87; 145 83; 146 84; 147 7; 
149 12; 150 3; 158 19; 159 16; 160 962; 
161 114; 162 14; 164 7; 171 7; 172 245; 
173 43; 174 7; 184 8; 185 2; 186 35; 
187 14; 188 14; 202 684; 203 239; 204 25; 
216 9; 219 2; 227 6; 245 999; 246 184; 
247 12; 265 7; 

