Name: 1-(2-phenylethyl)-4-(2-methyl-N-acetanilido)piperidine
InChIKey: GRDWUDZBHWHLSH-UHFFFAOYSA-N
Synon: Fentanyl ortho tolyl acetyl analog
Synon: Acetamide, N-(2-methylphenyl)-N-[1-(2-phenylethyl)-4-piperidinyl]-
Formula: C22H28N2O
MW: 336
ExactMass: 336.220163
CAS#: 90736-11-1;  NIST#: 248329
DB#: 36054
Comments: Patti Price, Georgia Bureau of Investigation, Decatur, Georgia
Num Peaks: 112
42 94; 43 83; 44 55; 51 7; 52 4; 
53 7; 54 8; 55 14; 56 12; 57 7; 
58 1; 60 1; 62 1; 63 5; 64 3; 
65 41; 66 4; 67 15; 68 20; 69 17; 
70 29; 71 2; 72 1; 74 1; 77 48; 
78 13; 79 43; 80 10; 81 3; 82 17; 
83 3; 84 2; 89 10; 90 8; 91 141; 
92 13; 93 5; 94 12; 95 16; 96 91; 
97 11; 98 1; 99 1; 103 34; 104 24; 
105 137; 106 35; 107 23; 108 12; 109 1; 
110 1; 111 1; 115 9; 116 5; 117 33; 
118 56; 119 9; 120 10; 121 1; 127 1; 
128 3; 129 3; 130 51; 131 27; 132 61; 
133 8; 134 10; 137 1; 139 3; 141 1; 
143 5; 144 42; 145 42; 146 56; 147 5; 
149 8; 150 6; 158 10; 159 4; 160 682; 
161 81; 162 7; 167 1; 168 1; 171 1; 
172 169; 173 27; 174 5; 182 1; 184 4; 
185 1; 186 23; 187 4; 188 8; 189 2; 
201 7; 202 543; 203 198; 204 21; 207 1; 
211 1; 216 7; 217 1; 218 1; 231 1; 
245 999; 246 161; 247 14; 250 1; 293 1; 
334 1; 336 1; 

