Name: 4-Methoxy-butyryl fentanyl
InChIKey: FNVSEQCPMXWQKG-UHFFFAOYSA-N
Retention_index: SemiStdNP=3122
Formula: C24H32N2O2
MW: 380
ExactMass: 380.246378
NIST#: 463403
DB#: 181146
Comments: NIST Mass Spectrometry Data Center
Num Peaks: 182
15 1; 26 1; 27 22; 28 11; 29 10; 
30 6; 37 1; 38 1; 39 16; 40 3; 
41 92; 42 208; 43 243; 44 130; 45 4; 
50 3; 51 11; 52 7; 53 12; 54 17; 
55 50; 56 32; 57 19; 58 4; 62 1; 
63 8; 64 11; 65 29; 66 4; 67 26; 
68 39; 69 47; 70 131; 71 104; 72 5; 
74 1; 75 1; 76 5; 77 84; 78 28; 
79 71; 80 19; 81 8; 82 39; 83 8; 
84 11; 85 2; 87 1; 88 1; 89 7; 
90 8; 91 124; 92 39; 93 9; 94 19; 
95 26; 96 245; 97 45; 98 5; 100 2; 
101 2; 102 7; 103 58; 104 42; 105 348; 
106 40; 107 32; 108 37; 109 11; 111 2; 
112 1; 113 3; 114 1; 115 7; 116 6; 
117 27; 118 16; 119 8; 120 16; 121 41; 
122 22; 123 48; 124 21; 125 2; 127 1; 
128 3; 129 4; 130 33; 131 18; 132 40; 
133 19; 134 103; 135 32; 136 27; 137 4; 
138 1; 139 18; 140 2; 141 2; 142 1; 
143 4; 144 23; 145 32; 146 40; 147 19; 
148 57; 149 41; 150 13; 151 1; 153 1; 
154 2; 155 1; 156 2; 157 2; 158 6; 
159 6; 160 79; 161 46; 162 87; 163 14; 
164 4; 165 2; 166 1; 168 1; 170 1; 
171 1; 172 2; 173 2; 174 11; 175 12; 
176 999; 177 123; 178 15; 179 1; 182 1; 
184 6; 185 4; 186 43; 187 9; 188 111; 
189 20; 190 7; 191 2; 193 4; 194 7; 
195 1; 201 1; 202 6; 203 6; 204 2; 
205 1; 215 1; 216 1; 217 12; 218 20; 
219 415; 220 63; 221 5; 229 1; 230 1; 
231 1; 244 1; 246 79; 247 13; 248 1; 
258 1; 259 1; 260 4; 261 1; 274 1; 
287 3; 288 1; 289 930; 290 180; 291 20; 
292 2; 295 1; 309 2; 310 1; 337 1; 
378 1; 379 1; 

