Name: para-Methoxy Acrylfentanyl
InChIKey: OPFSSCQJIGSMRG-UHFFFAOYSA-N
Synon: 4-Methoxy Acrylfentanyl
Synon: p-Methoxy Acrylfentanyl
Synon: N-(4-methoxyphenyl)-N-(1-phenethylpiperidin-4-yl)acrylamide
Formula: C23H28N2O2
MW: 364
ExactMass: 364.215078
DB#: 4855
Comments: Provided by www.caymanchem.com/app/template/landing%2CForensic.vm / Item#23192 Batch#0513958
Num Peaks: 155
41 46; 42 165; 43 15; 44 54; 45 2; 
49 2; 50 8; 51 24; 52 21; 53 19; 
54 19; 55 342; 56 34; 57 12; 58 4; 
61 2; 62 5; 63 22; 64 19; 65 64; 
66 5; 67 33; 68 36; 69 30; 70 79; 
71 8; 73 19; 74 6; 75 7; 76 8; 
77 112; 78 55; 79 87; 80 33; 81 6; 
82 29; 83 8; 84 8; 87 2; 89 15; 
90 14; 91 244; 92 53; 93 12; 94 29; 
95 17; 96 228; 97 32; 98 14; 101 2; 
102 8; 103 67; 104 61; 105 232; 106 23; 
107 30; 108 65; 109 11; 110 3; 115 7; 
116 6; 117 26; 118 14; 119 13; 120 11; 
121 24; 122 41; 123 78; 124 14; 128 3; 
129 3; 130 25; 131 14; 132 29; 133 22; 
134 79; 135 27; 136 17; 138 2; 139 25; 
140 2; 141 2; 143 4; 144 10; 145 17; 
146 27; 147 22; 148 34; 149 23; 150 11; 
151 2; 154 3; 156 5; 157 2; 158 7; 
159 4; 160 97; 161 39; 162 67; 163 6; 
172 2; 173 2; 174 13; 175 17; 176 489; 
177 113; 178 10; 179 3; 182 3; 184 20; 
185 9; 186 19; 187 12; 188 178; 189 30; 
190 5; 191 6; 193 2; 195 2; 200 2; 
202 11; 203 4; 207 24; 208 5; 209 3; 
217 18; 218 25; 219 87; 220 6; 228 2; 
230 463; 231 74; 232 8; 244 3; 245 2; 
249 4; 253 14; 254 3; 255 2; 267 7; 
268 2; 271 5; 273 999; 274 179; 275 20; 
276 3; 281 10; 282 2; 309 3; 325 3; 
327 3; 331 4; 341 3; 343 3; 362 3; 

