Name: Fentanyl para tolyl acetyl analog
InChIKey: JNQPTABAZAHVEN-UHFFFAOYSA-N
Synon: Acetamide, N-(4-methylphenyl)-N-[1-(2-phenylethyl)-4-piperidinyl]-
Synon: 1-(2-phenylethyl)-4-(4-methyl-N-acetanilido)piperidine
Formula: C22H28N2O
MW: 336
ExactMass: 336.220163
DB#: 2093
Comments: DEA WRL
Num Peaks: 100
15 9; 17 7; 24 4; 26 13; 27 26; 
29 4; 30 7; 31 6; 32 19; 39 51; 
41 61; 42 244; 43 445; 44 110; 45 7; 
46 14; 49 10; 51 57; 52 41; 53 15; 
54 28; 55 40; 57 31; 58 9; 59 15; 
64 15; 65 152; 66 20; 68 61; 69 53; 
70 63; 73 13; 76 17; 77 172; 78 33; 
79 108; 80 35; 81 13; 82 38; 84 24; 
87 4; 88 4; 89 40; 90 17; 91 450; 
92 79; 93 11; 95 32; 96 159; 97 28; 
102 21; 103 92; 104 24; 105 237; 106 70; 
107 28; 109 10; 115 14; 116 16; 117 60; 
118 116; 120 46; 128 14; 129 10; 130 80; 
131 65; 132 143; 133 40; 134 31; 141 12; 
143 18; 144 117; 145 106; 146 138; 147 29; 
149 6; 154 4; 157 13; 158 30; 159 25; 
160 907; 161 132; 163 6; 172 282; 173 46; 
174 23; 176 6; 184 20; 186 45; 188 12; 
201 14; 202 624; 203 252; 204 32; 205 5; 
216 16; 245 999; 246 195; 247 8; 271 6; 

