Name: Ocfentanil
InChIKey: NYISTOZKVCMVEL-UHFFFAOYSA-N
Synon: N-(2-fluorophenyl)-2-methoxy-N-[1-(2-phenylethyl)piperidin-4-yl]acetamide)
Synon: A-3217
Formula: C22H27FN2O2
MW: 370
ExactMass: 370.205656
CAS#: 101343-69-5
DB#: 3642
Comments: ENFSI / digitalized MS from EDND, HIFS Budapest
Num Peaks: 151
38 3; 39 35; 40 9; 41 115; 42 481; 
43 77; 44 212; 45 925; 46 22; 47 3; 
50 11; 51 30; 52 13; 53 26; 54 30; 
55 88; 56 67; 57 43; 58 129; 59 11; 
62 5; 63 12; 64 7; 65 38; 66 5; 
67 51; 68 52; 69 59; 70 204; 71 13; 
72 5; 73 14; 74 5; 75 22; 76 9; 
77 94; 78 27; 79 89; 80 22; 81 13; 
82 55; 83 36; 84 24; 85 5; 88 8; 
89 10; 90 13; 91 119; 92 13; 93 7; 
94 41; 95 111; 96 320; 97 53; 98 23; 
100 63; 101 9; 102 20; 103 84; 104 71; 
105 417; 106 38; 107 9; 108 5; 109 55; 
110 36; 111 22; 112 8; 115 11; 116 9; 
117 20; 118 11; 119 5; 120 3; 121 5; 
122 96; 123 47; 124 105; 125 11; 126 3; 
127 3; 128 22; 129 11; 130 31; 131 9; 
132 18; 133 10; 134 13; 135 28; 136 69; 
137 34; 138 22; 139 55; 140 5; 143 5; 
144 11; 145 3; 146 9; 147 7; 148 67; 
149 63; 150 156; 151 22; 152 5; 153 26; 
154 8; 156 3; 158 5; 160 22; 161 5; 
162 13; 163 9; 164 74; 165 13; 166 11; 
167 3; 176 345; 177 48; 178 57; 179 11; 
180 5; 183 30; 184 20; 185 15; 186 39; 
187 11; 188 39; 189 5; 190 7; 191 7; 
192 5; 193 3; 194 7; 204 3; 205 36; 
206 14; 207 55; 208 221; 209 32; 210 5; 
219 13; 220 3; 236 152; 237 23; 238 5; 
249 3; 267 3; 279 999; 280 180; 281 32; 
282 6; 

