Name: para-Fluorobutyryl fentanyl
InChIKey: QZFMCYUBPSLOBP-UHFFFAOYSA-N
Synon: p-FBF
Synon: N-(4-fluorophenyl)-N-[1-(2-phenylethyl)-4-piperidinyl]-butanamide
Formula: C23H29FN2O
MW: 368
ExactMass: 368.22639
DB#: 4318
Comments: Provided by www.caymanchem.com/app/template/landing%2CForensic.vm / Item #17049
Num Peaks: 149
40 1; 41 69; 42 98; 43 174; 44 69; 
45 2; 50 3; 51 9; 52 3; 53 4; 
54 7; 55 20; 56 10; 57 15; 58 1; 
61 1; 62 1; 63 6; 64 3; 65 29; 
66 3; 67 16; 68 23; 69 27; 70 45; 
71 117; 72 6; 73 1; 74 2; 75 13; 
76 3; 77 40; 78 17; 79 41; 80 9; 
81 5; 82 22; 83 17; 84 12; 85 2; 
89 9; 90 4; 91 140; 92 14; 93 2; 
94 15; 95 65; 96 104; 97 17; 98 3; 
101 1; 102 5; 103 42; 104 26; 105 146; 
106 14; 107 2; 108 3; 109 28; 110 9; 
111 67; 112 10; 113 1; 115 5; 116 2; 
117 8; 118 2; 119 1; 121 4; 122 47; 
123 18; 124 14; 128 1; 129 1; 130 15; 
131 4; 132 6; 133 5; 134 8; 135 17; 
136 50; 137 24; 138 9; 139 13; 141 1; 
144 4; 145 1; 146 4; 147 3; 148 33; 
149 43; 150 67; 151 8; 152 2; 153 1; 
156 1; 158 4; 159 1; 160 14; 161 2; 
162 9; 163 10; 164 442; 165 51; 166 5; 
174 1; 175 1; 176 21; 177 10; 178 5; 
179 1; 180 1; 181 7; 182 5; 184 7; 
185 6; 186 21; 187 4; 188 21; 189 2; 
190 2; 191 4; 192 2; 193 1; 205 12; 
206 6; 207 348; 208 48; 209 3; 231 1; 
234 34; 235 4; 248 3; 249 1; 253 2; 
254 1; 259 1; 267 1; 275 1; 277 999; 
278 176; 279 17; 281 1; 283 1; 297 2; 
327 1; 355 1; 366 3; 367 1; 

