Name: 4-Methoxy-Butyrylfentanyl
InChIKey: FNVSEQCPMXWQKG-UHFFFAOYSA-N
Synon: 4-MeO-Butyrylfentanyl
Formula: C24H32N2O2
MW: 380
ExactMass: 380.246378
DB#: 4377
Comments: Provided by www.caymanchem.com/app/template/landing%2CForensic.vm / Item # 18089 / SWGDRUG Monograph available
Num Peaks: 169
40 1; 41 96; 42 147; 43 225; 44 75; 
45 2; 50 8; 51 19; 52 15; 53 15; 
54 15; 55 38; 56 22; 57 12; 58 2; 
61 1; 62 3; 63 14; 64 13; 65 42; 
66 6; 67 24; 68 33; 69 38; 70 93; 
71 123; 72 6; 73 4; 74 3; 75 4; 
76 6; 77 85; 78 39; 79 68; 80 28; 
81 9; 82 30; 83 7; 84 8; 85 1; 
87 1; 89 10; 90 10; 91 180; 92 44; 
93 12; 94 29; 95 26; 96 211; 97 35; 
98 9; 101 1; 102 8; 103 55; 104 49; 
105 251; 106 32; 107 27; 108 81; 109 13; 
111 1; 113 1; 115 7; 116 5; 117 22; 
118 13; 119 6; 120 14; 121 32; 122 29; 
123 102; 124 20; 125 1; 128 2; 129 4; 
130 29; 131 15; 132 30; 133 17; 134 82; 
135 29; 136 21; 137 2; 139 12; 140 1; 
141 2; 142 1; 143 4; 144 16; 145 23; 
146 33; 147 16; 148 45; 149 40; 150 11; 
151 1; 153 1; 154 1; 155 1; 156 3; 
157 1; 158 7; 159 4; 160 65; 161 38; 
162 70; 163 12; 164 4; 165 1; 170 1; 
172 2; 173 2; 174 10; 175 12; 176 790; 
177 99; 178 11; 179 1; 182 3; 183 1; 
184 20; 185 16; 186 39; 187 11; 188 93; 
189 19; 190 7; 191 3; 192 1; 193 28; 
194 9; 195 1; 202 6; 203 6; 204 2; 
207 8; 208 1; 209 2; 217 16; 218 30; 
219 479; 220 71; 221 5; 229 1; 231 1; 
244 1; 246 88; 247 14; 248 1; 253 3; 
254 1; 259 1; 260 3; 261 1; 267 1; 
274 1; 281 3; 282 1; 287 2; 289 999; 
290 186; 291 21; 292 1; 309 1; 327 1; 
331 1; 337 1; 378 4; 379 2; 

