Name: Valeryl fentanyl-d5
InChIKey: VCCPXHWAJYWQMR-CGMUFORSSA-N
Synon: Pentanoyl fentanyl-d5
Formula: C24H27D5N2O
MW: 369
ExactMass: 369.282846
DB#: 4445
Comments: Provided by www.caymanchem.com/app/template/landing%2CForensic.vm / Item #19243 Batch #0480280
Num Peaks: 181
41 126; 42 150; 43 28; 44 84; 45 3; 
50 5; 51 12; 52 7; 53 11; 54 24; 
55 54; 56 28; 57 216; 58 11; 59 1; 
61 1; 62 2; 63 6; 64 2; 65 37; 
66 6; 67 23; 68 37; 69 36; 70 69; 
71 10; 72 1; 73 7; 74 2; 75 3; 
76 3; 77 50; 78 23; 79 55; 80 19; 
81 20; 82 120; 83 22; 84 20; 85 84; 
86 5; 89 11; 90 4; 91 174; 92 20; 
93 6; 94 23; 95 37; 96 195; 97 45; 
98 75; 99 19; 100 1; 102 5; 103 48; 
104 39; 105 237; 106 23; 107 6; 108 11; 
109 53; 110 25; 111 23; 112 4; 113 2; 
114 1; 115 5; 116 3; 117 10; 118 5; 
119 4; 120 8; 121 13; 122 36; 123 60; 
124 37; 125 15; 128 2; 129 2; 130 12; 
131 8; 132 14; 133 7; 134 60; 135 43; 
136 64; 137 94; 138 18; 139 28; 140 7; 
141 2; 143 1; 144 4; 145 1; 146 4; 
147 5; 148 11; 149 10; 150 36; 151 638; 
152 72; 153 9; 154 3; 155 1; 156 2; 
158 5; 159 2; 160 25; 161 8; 162 5; 
163 30; 164 13; 165 15; 166 3; 168 1; 
170 1; 172 1; 176 1; 177 2; 178 6; 
179 3; 181 1; 182 5; 183 4; 184 14; 
185 11; 186 33; 187 8; 188 39; 189 6; 
190 1; 191 4; 192 20; 193 46; 194 462; 
195 67; 196 5; 197 1; 203 1; 207 7; 
208 1; 209 3; 218 1; 219 1; 231 3; 
232 1; 233 1; 235 34; 236 6; 237 1; 
239 1; 249 4; 250 1; 253 8; 254 2; 
255 1; 260 2; 262 3; 267 1; 269 2; 
276 5; 277 1; 278 999; 279 188; 280 20; 
281 4; 283 1; 284 3; 285 1; 325 1; 
327 3; 329 1; 331 2; 332 1; 340 1; 
341 1; 343 1; 346 1; 355 1; 367 5; 
368 2; 

