Name: Furanyl fentanyl-d5
InChIKey: FZJVHWISUGFFQV-GGFWIOISSA-N
Formula: C24H21D5N2O2
MW: 379
ExactMass: 379.230812
DB#: 4443
Comments: Provided by www.caymanchem.com/app/template/landing%2CForensic.vm / Item #19223 Batch #0480280
Num Peaks: 177
40 1; 41 41; 42 153; 43 21; 44 45; 
45 1; 50 5; 51 18; 52 10; 53 14; 
54 26; 55 29; 56 19; 57 13; 58 2; 
61 1; 62 2; 63 9; 64 4; 65 52; 
66 13; 67 47; 68 38; 69 32; 70 50; 
71 7; 73 8; 74 3; 75 2; 76 4; 
77 58; 78 26; 79 54; 80 19; 81 27; 
82 114; 83 16; 84 7; 87 1; 89 10; 
90 6; 91 208; 92 22; 93 9; 94 25; 
95 999; 96 246; 97 34; 98 30; 99 4; 
102 4; 103 45; 104 34; 105 157; 106 16; 
107 6; 108 10; 109 40; 110 15; 111 7; 
112 1; 115 3; 116 2; 117 9; 118 3; 
119 8; 120 10; 121 13; 122 20; 123 24; 
124 16; 125 4; 126 4; 127 1; 128 2; 
129 2; 130 13; 131 6; 132 11; 133 7; 
134 38; 135 43; 136 40; 137 61; 138 19; 
139 6; 141 1; 143 1; 144 10; 145 2; 
146 4; 147 6; 148 6; 149 10; 150 7; 
151 14; 152 1; 154 1; 156 3; 157 1; 
158 6; 159 1; 160 18; 161 5; 162 10; 
163 157; 164 26; 165 5; 170 1; 171 1; 
172 2; 173 1; 174 4; 175 51; 176 15; 
177 4; 178 3; 182 1; 184 13; 185 9; 
186 27; 187 8; 188 7; 189 2; 190 1; 
191 5; 192 54; 193 32; 194 8; 195 2; 
197 1; 202 1; 203 1; 205 1; 207 12; 
208 2; 209 2; 210 1; 215 10; 216 2; 
217 36; 218 6; 231 1; 244 2; 245 460; 
246 74; 247 8; 251 1; 253 5; 254 2; 
256 1; 259 1; 265 2; 267 1; 268 1; 
269 1; 281 4; 282 2; 283 2; 284 11; 
285 4; 286 1; 288 963; 289 179; 290 20; 
291 1; 325 1; 327 1; 328 1; 331 1; 
341 1; 342 1; 343 1; 346 1; 355 2; 
377 3; 378 1; 

