Name: Butyryl fentanyl-d5
InChIKey: QQOMYEQLWQJRKK-KSJLTHBUSA-N
Formula: C23H25D5N2O
MW: 355
ExactMass: 355.267197
DB#: 4444
Comments: Provided by www.caymanchem.com/app/template/landing%2CForensic.vm / Item #19294 Batch #0481067
Num Peaks: 176
41 104; 42 163; 43 245; 44 93; 45 3; 
50 5; 51 12; 52 7; 53 10; 54 26; 
55 36; 56 25; 57 20; 58 3; 59 1; 
62 2; 63 7; 64 3; 65 41; 66 7; 
67 23; 68 37; 69 42; 70 72; 71 134; 
72 7; 73 7; 74 1; 75 2; 76 2; 
77 52; 78 24; 79 57; 80 20; 81 20; 
82 129; 83 22; 84 15; 85 2; 89 10; 
90 5; 91 180; 92 21; 93 4; 94 22; 
95 34; 96 187; 97 40; 98 67; 99 18; 
100 2; 102 5; 103 49; 104 38; 105 228; 
106 23; 107 5; 108 12; 109 56; 110 28; 
111 23; 112 3; 113 2; 115 5; 116 2; 
117 10; 118 4; 119 4; 120 8; 121 15; 
122 37; 123 61; 124 30; 125 13; 126 1; 
128 2; 129 2; 130 15; 131 7; 132 12; 
133 7; 134 59; 135 43; 136 61; 137 95; 
138 18; 139 20; 140 3; 141 1; 143 2; 
144 4; 145 1; 146 4; 147 8; 148 12; 
149 12; 150 42; 151 656; 152 75; 153 9; 
154 3; 155 1; 156 3; 157 1; 158 5; 
159 1; 160 25; 161 6; 162 4; 163 33; 
164 11; 165 8; 166 2; 167 1; 168 7; 
169 4; 170 1; 173 1; 175 1; 176 2; 
177 2; 178 5; 179 2; 182 1; 184 10; 
185 9; 186 30; 187 7; 188 30; 189 3; 
190 1; 191 2; 192 23; 193 45; 194 455; 
195 62; 196 4; 197 1; 204 2; 207 2; 
208 1; 209 1; 217 1; 218 1; 220 1; 
221 50; 222 7; 235 4; 236 1; 246 1; 
248 2; 251 1; 253 4; 254 3; 256 1; 
261 1; 262 7; 263 8; 264 999; 265 178; 
266 17; 269 1; 281 3; 282 1; 283 1; 
284 2; 285 1; 315 1; 327 1; 331 1; 
332 1; 341 1; 343 1; 353 4; 354 1; 
355 1; 

