Name: ortho-Fluorobutyryl fentanyl
InChIKey: NLSYMTDGNNFMCX-UHFFFAOYSA-N
Synon: 2-FBF
Synon: o-FBF
Synon: 2-Fluorobutyryl fentanyl
Synon: o-Fluorobutyryl fentanyl
Synon: N-(2-fluorophenyl)-N-(1-phenethylpiperidin-4-yl)butyramide
Formula: C23H29FN2O
MW: 368
ExactMass: 368.22639
DB#: 4526
Comments: Provided by www.caymanchem.com/app/template/landing%2CForensic.vm / Item #19567 Batch #0487896
Num Peaks: 162
40 4; 41 123; 42 184; 43 294; 44 126; 
45 4; 50 6; 51 14; 52 6; 53 10; 
54 14; 55 38; 56 30; 57 26; 58 4; 
61 1; 62 3; 63 11; 64 5; 65 39; 
66 4; 67 26; 68 37; 69 44; 70 73; 
71 150; 72 7; 73 3; 74 3; 75 20; 
76 6; 77 65; 78 24; 79 61; 80 15; 
81 9; 82 36; 83 31; 84 23; 85 3; 
89 12; 90 14; 91 154; 92 18; 93 5; 
94 24; 95 77; 96 164; 97 26; 98 8; 
100 1; 101 2; 102 14; 103 57; 104 39; 
105 238; 106 21; 107 3; 108 5; 109 38; 
110 24; 111 148; 112 24; 113 3; 114 1; 
115 7; 116 5; 117 16; 118 9; 119 2; 
120 1; 121 5; 122 82; 123 27; 124 26; 
125 2; 127 1; 128 4; 129 5; 130 31; 
131 9; 132 15; 133 4; 134 12; 135 21; 
136 74; 137 31; 138 15; 139 18; 140 1; 
141 2; 142 1; 143 4; 144 11; 145 3; 
146 6; 147 2; 148 54; 149 61; 150 91; 
151 15; 152 5; 153 2; 154 1; 156 3; 
157 1; 158 5; 159 2; 160 23; 161 5; 
162 8; 163 11; 164 652; 165 75; 166 10; 
167 1; 170 1; 171 2; 172 1; 174 1; 
175 1; 176 15; 177 8; 178 6; 179 2; 
181 12; 182 4; 183 1; 184 9; 185 8; 
186 26; 187 7; 188 29; 189 4; 190 1; 
191 3; 192 1; 193 1; 204 1; 205 14; 
206 15; 207 403; 208 56; 209 3; 231 1; 
234 31; 235 5; 248 4; 249 1; 253 3; 
254 1; 275 1; 277 999; 278 180; 279 17; 
280 1; 282 1; 297 3; 325 1; 327 1; 
366 4; 367 1; 

