Name: meta-Fluorobutyryl fentanyl
InChIKey: BSGQPGPNNBBEEQ-UHFFFAOYSA-N
Synon: m-FBF
Synon: m-Fluorobutyryl fentanyl
Synon: N-(3-fluorophenyl)-N-(1-phenethylpiperidin-4-yl)butyramide
Formula: C23H29FN2O
MW: 368
ExactMass: 368.22639
DB#: 4525
Comments: Provided by www.caymanchem.com/app/template/landing%2CForensic.vm / Item #19566 Batch #0487107
Num Peaks: 157
40 3; 41 142; 42 217; 43 368; 44 191; 
45 5; 49 1; 50 7; 51 15; 52 7; 
53 11; 54 15; 55 44; 56 35; 57 29; 
58 5; 59 1; 61 1; 62 3; 63 12; 
64 4; 65 42; 66 4; 67 26; 68 39; 
69 43; 70 63; 71 183; 72 9; 73 3; 
74 3; 75 22; 76 5; 77 60; 78 24; 
79 60; 80 14; 81 8; 82 34; 83 25; 
84 25; 85 3; 87 1; 89 10; 90 6; 
91 158; 92 18; 93 4; 94 21; 95 110; 
96 157; 97 24; 98 8; 100 1; 101 3; 
102 6; 103 55; 104 38; 105 223; 106 20; 
107 3; 108 5; 109 29; 110 17; 111 113; 
112 18; 113 2; 115 6; 116 3; 117 12; 
118 3; 119 1; 120 1; 121 5; 122 58; 
123 22; 124 22; 125 1; 127 1; 128 3; 
129 3; 130 22; 131 7; 132 13; 133 4; 
134 11; 135 25; 136 67; 137 27; 138 13; 
139 16; 140 1; 141 1; 143 2; 144 6; 
145 2; 146 6; 147 2; 148 78; 149 48; 
150 92; 151 17; 152 6; 153 2; 154 2; 
155 1; 156 3; 158 4; 159 1; 160 19; 
161 5; 162 12; 163 13; 164 495; 165 58; 
166 9; 170 1; 174 2; 175 2; 176 17; 
177 10; 178 7; 179 2; 181 16; 182 5; 
184 10; 185 8; 186 28; 187 5; 188 30; 
189 4; 190 3; 191 5; 192 1; 204 1; 
205 16; 206 17; 207 393; 208 53; 209 3; 
231 2; 234 32; 235 5; 247 1; 248 4; 
249 1; 253 3; 259 1; 261 1; 269 1; 
275 3; 277 999; 278 180; 279 17; 297 3; 
366 4; 367 1; 

