Name: para-Fluorobutyryl fentanyl-d7 (Not Certified by NIST)
InChIKey: QZFMCYUBPSLOBP-WDPWIZPISA-N
Synon: p-FBF-d7
Synon: p-Fluorobutyryl fentanyl-d7
Synon: N-(4-fluorophenyl)-N-(1-phenethylpiperidin-4-yl)butanamide-d7
Formula: C23H22D7FN2O
MW: 375
ExactMass: 375.270329
DB#: 4555
Comments: Note: Spectrum not certified by NIST / Provided by www.caymanchem.com/app/template/landing%2CForensic.vm / Item #19596 Batch #0484762
Num Peaks: 181
41 35; 42 156; 43 26; 44 81; 45 46; 
46 69; 47 2; 48 4; 49 28; 50 271; 
51 21; 52 6; 53 8; 54 12; 55 25; 
56 23; 57 22; 58 8; 59 1; 61 1; 
62 3; 63 9; 64 3; 65 42; 66 4; 
67 23; 68 32; 69 34; 70 61; 71 9; 
72 1; 73 3; 74 5; 75 20; 76 8; 
77 74; 78 155; 79 64; 80 14; 81 6; 
82 30; 83 18; 84 12; 85 6; 86 1; 
87 1; 88 1; 89 11; 90 5; 91 180; 
92 18; 93 5; 94 19; 95 100; 96 149; 
97 25; 98 10; 99 1; 101 2; 102 6; 
103 54; 104 36; 105 201; 106 19; 107 5; 
108 5; 109 29; 110 13; 111 16; 112 35; 
113 12; 114 1; 115 6; 116 3; 117 10; 
118 4; 119 2; 120 1; 121 6; 122 60; 
123 26; 124 12; 125 8; 126 2; 127 3; 
128 2; 129 3; 130 19; 131 7; 132 12; 
133 5; 134 11; 135 22; 136 38; 137 46; 
138 11; 139 13; 140 2; 141 1; 143 2; 
144 4; 145 3; 146 5; 147 1; 148 59; 
149 56; 150 75; 151 26; 152 4; 153 2; 
154 2; 155 1; 156 3; 157 1; 158 4; 
159 1; 160 17; 161 5; 162 7; 163 11; 
164 30; 165 482; 166 54; 167 5; 168 1; 
170 2; 171 6; 172 1; 174 1; 175 2; 
176 27; 177 12; 178 5; 179 3; 180 1; 
181 1; 182 1; 184 9; 185 7; 186 27; 
187 6; 188 22; 189 5; 190 3; 191 4; 
205 15; 206 17; 207 11; 208 346; 209 48; 
210 2; 222 1; 223 1; 232 1; 240 4; 
241 54; 242 8; 253 5; 254 1; 255 6; 
264 1; 265 2; 266 1; 267 1; 268 1; 
269 1; 281 4; 282 2; 283 83; 284 999; 
285 178; 286 17; 287 1; 297 2; 298 1; 
325 1; 327 1; 331 1; 346 2; 373 3; 
374 1; 

