Name: para-Fluorofentanyl-d5 (Not Certified by NIST)
InChIKey: KXUBAVLIJFTASZ-ZBJDZAJPSA-N
Synon: 4-FF-d5
Synon: p-FF-d5
Synon: N-(4-fluorophenyl)-N-(1-phenethylpiperidin-4-yl)propanamide-d5
Synon: 4-Fluorofentanyl-d5
Formula: C22H22D5FN2O
MW: 359
ExactMass: 359.242125
DB#: 4568
Comments: Note: Spectrum not certified by NIST / Provided by www.caymanchem.com/app/template/landing%2CForensic.vm / Item #19597 Batch #0484763
Num Peaks: 169
40 2; 41 38; 42 169; 43 28; 44 97; 
45 48; 46 1; 50 6; 51 14; 52 6; 
53 9; 54 14; 55 26; 56 24; 57 22; 
58 6; 59 1; 60 3; 61 21; 62 218; 
63 17; 64 4; 65 45; 66 5; 67 25; 
68 32; 69 32; 70 53; 71 8; 72 1; 
73 4; 74 2; 75 22; 76 5; 77 59; 
78 23; 79 56; 80 13; 81 7; 82 28; 
83 18; 84 11; 85 4; 89 11; 90 6; 
91 172; 92 17; 93 5; 94 19; 95 98; 
96 134; 97 20; 98 6; 99 1; 101 2; 
102 5; 103 51; 104 34; 105 184; 106 17; 
107 3; 108 4; 109 26; 110 12; 111 15; 
112 44; 113 12; 115 6; 116 3; 117 10; 
118 3; 119 1; 120 1; 121 7; 122 58; 
123 22; 124 11; 125 9; 126 1; 127 1; 
128 2; 129 2; 130 19; 131 7; 132 11; 
133 5; 134 9; 135 22; 136 36; 137 47; 
138 10; 139 10; 140 1; 141 1; 142 1; 
143 2; 144 4; 145 3; 146 5; 147 2; 
148 57; 149 50; 150 76; 151 28; 152 4; 
153 2; 154 3; 155 13; 156 4; 158 4; 
159 1; 160 16; 161 4; 162 7; 163 12; 
164 29; 165 509; 166 57; 167 5; 168 1; 
170 1; 171 1; 172 7; 173 4; 174 1; 
175 2; 176 45; 177 13; 178 4; 179 2; 
180 1; 182 1; 184 8; 185 7; 186 24; 
187 5; 188 12; 189 2; 190 3; 191 3; 
192 1; 197 1; 205 14; 206 17; 207 17; 
208 289; 209 40; 210 3; 224 11; 225 121; 
226 17; 227 1; 239 6; 240 1; 248 1; 
249 1; 250 1; 253 3; 265 2; 266 1; 
267 69; 268 999; 269 165; 270 15; 271 1; 
297 2; 331 1; 357 4; 358 1; 

