Name: para-Fluoro Acrylfentanyl
InChIKey: ZTLLQVADDIYHJU-UHFFFAOYSA-N
Synon: 4-Fluoro Acrylfentanyl
Synon: p-Fluoro Acrylfentanyl
Synon: N-(4-fluorophenyl)-N-(1-phenethylpiperidin-4-yl)acrylamide
Formula: C22H25FN2O
MW: 352
ExactMass: 352.195091
DB#: 4620
Comments: Provided by www.caymanchem.com/Forensic.vm / Item# 21116 Batch# 0496157
Num Peaks: 135
41 35; 42 160; 43 24; 44 104; 45 3; 
50 4; 51 12; 52 5; 53 10; 54 13; 
55 365; 56 32; 57 18; 58 3; 62 2; 
63 9; 64 3; 65 50; 66 4; 67 21; 
68 25; 69 29; 70 41; 71 3; 74 2; 
75 21; 76 4; 77 54; 78 19; 79 51; 
80 10; 81 6; 82 24; 83 14; 84 10; 
85 1; 86 1; 89 11; 90 6; 91 216; 
92 19; 93 2; 94 13; 95 85; 96 110; 
97 13; 98 6; 101 3; 102 4; 103 43; 
104 23; 105 141; 106 12; 107 3; 108 5; 
109 26; 110 9; 111 17; 112 4; 115 4; 
116 2; 117 7; 118 2; 119 1; 120 1; 
121 7; 122 51; 123 14; 124 12; 125 1; 
128 1; 129 2; 130 13; 131 4; 132 7; 
133 3; 134 6; 135 19; 136 41; 137 15; 
138 6; 139 4; 143 1; 144 4; 145 1; 
146 4; 147 1; 148 73; 149 39; 150 65; 
151 9; 152 1; 156 1; 158 2; 159 1; 
160 12; 161 4; 162 10; 163 8; 164 269; 
165 33; 166 6; 167 1; 174 1; 175 2; 
176 89; 177 18; 178 5; 179 1; 184 4; 
185 2; 186 17; 187 3; 188 10; 189 2; 
190 6; 191 3; 204 1; 205 13; 206 18; 
207 103; 208 15; 216 1; 218 328; 219 53; 
220 4; 232 5; 233 1; 259 1; 261 999; 
262 172; 263 17; 264 1; 297 3; 353 1; 

