Name: para-Fluoroisobutyryl fentanyl
InChIKey: OZDOSQNUJIXEOR-UHFFFAOYSA-N
Synon: FIBF
Synon: 4-FIBF
Synon: p-Fluoroisobutyryl fentanyl
Synon: N-(4-fluorophenyl)-N-(1-phenethylpiperidin-4-yl)isobutyramide
Synon: N-(4-fluorophenyl)-2-methyl-N-[1-(2-phenethyl)piperidin-4-yl]propanamide
Synon: 4-Fluoroisobutyrylfentanyl
Formula: C23H29FN2O
MW: 368
ExactMass: 368.22639
DB#: 4629
Comments: Provided by www.caymanchem.com/app/template/landing%2CForensic.vm / Item #19313 Batch #0481306 / SWGDRUG Monograph available
Num Peaks: 159
41 110; 42 156; 43 410; 44 99; 45 3; 
50 5; 51 12; 52 5; 53 9; 54 13; 
55 34; 56 25; 57 23; 58 3; 61 1; 
62 2; 63 9; 64 3; 65 37; 66 3; 
67 20; 68 33; 69 40; 70 68; 71 165; 
72 8; 73 4; 74 2; 75 19; 76 4; 
77 58; 78 23; 79 60; 80 12; 81 6; 
82 32; 83 19; 84 16; 85 2; 89 10; 
90 5; 91 170; 92 18; 93 3; 94 19; 
95 96; 96 151; 97 23; 98 9; 100 1; 
101 2; 102 6; 103 55; 104 36; 105 234; 
106 21; 107 3; 108 5; 109 36; 110 15; 
111 39; 112 8; 113 1; 115 5; 116 3; 
117 11; 118 4; 119 1; 120 1; 121 6; 
122 73; 123 24; 124 15; 125 1; 128 2; 
129 2; 130 20; 131 7; 132 11; 133 5; 
134 11; 135 28; 136 57; 137 27; 138 9; 
139 17; 140 1; 143 1; 144 5; 145 1; 
146 6; 147 2; 148 68; 149 60; 150 79; 
151 14; 152 3; 153 1; 154 1; 156 1; 
158 4; 159 1; 160 21; 161 5; 162 11; 
163 11; 164 472; 165 56; 166 7; 167 1; 
175 2; 176 17; 177 10; 178 6; 179 1; 
180 1; 181 5; 182 4; 183 1; 184 9; 
185 6; 186 29; 187 6; 188 29; 189 5; 
190 2; 191 4; 192 2; 193 1; 195 1; 
203 1; 205 18; 207 484; 208 66; 209 5; 
210 1; 218 1; 231 1; 232 1; 234 41; 
235 6; 248 4; 249 1; 253 5; 254 1; 
255 1; 261 2; 275 3; 277 999; 278 178; 
279 17; 281 2; 282 1; 297 2; 325 1; 
327 1; 331 1; 366 2; 367 1; 

