Name: 4-Methoxy-Butyrylfentanyl-d7 (Not Certified by NIST)
InChIKey: FNVSEQCPMXWQKG-UWKUYXMGSA-N
Synon: 4-MeO-Butyrylfentanyl-d7
Synon: N-(4-methoxyphenyl)-N-(1-phenethylpiperidin-4-yl)butanamide-d7
Formula: C24H25D7N2O2
MW: 387
ExactMass: 387.290316
DB#: 4639
Comments: Note: Spectrum not certified by NIST / Provided by www.caymanchem.com/app/template/landing%2CForensic.vm / Item #19595 Batch #0482969
Num Peaks: 218
40 3; 41 58; 42 213; 43 31; 44 90; 
45 49; 46 82; 47 2; 48 5; 49 38; 
50 328; 51 39; 52 21; 53 11; 54 19; 
55 21; 56 27; 57 20; 58 11; 59 4; 
61 4; 62 2; 63 19; 64 18; 65 31; 
66 10; 67 26; 68 44; 69 24; 70 119; 
71 9; 72 1; 73 66; 74 12; 75 12; 
76 12; 77 132; 78 177; 79 93; 80 29; 
81 15; 82 38; 83 10; 84 8; 85 1; 
86 1; 87 2; 89 12; 90 14; 91 230; 
92 55; 93 7; 94 37; 95 28; 96 274; 
97 45; 98 18; 99 1; 101 1; 102 6; 
103 75; 104 62; 105 294; 106 37; 107 30; 
108 21; 109 53; 110 12; 111 3; 115 12; 
116 4; 117 29; 118 15; 119 12; 120 15; 
121 33; 122 17; 123 27; 124 75; 125 21; 
126 2; 127 1; 128 4; 129 5; 130 30; 
131 18; 132 36; 133 43; 134 89; 135 53; 
136 13; 137 15; 138 3; 139 14; 140 1; 
141 1; 142 1; 143 3; 144 11; 145 16; 
146 47; 147 39; 148 38; 149 56; 150 16; 
151 6; 152 5; 153 2; 154 4; 155 1; 
156 6; 157 2; 158 8; 159 6; 160 67; 
161 43; 162 41; 163 30; 164 3; 165 7; 
166 2; 167 1; 168 2; 169 1; 170 2; 
171 1; 172 2; 173 2; 174 7; 175 14; 
176 41; 177 814; 178 103; 179 12; 180 2; 
181 2; 182 5; 183 10; 184 13; 185 20; 
186 45; 187 11; 188 99; 189 14; 190 5; 
191 29; 192 5; 193 13; 194 3; 195 5; 
196 1; 197 4; 199 2; 200 23; 201 8; 
202 4; 203 5; 204 3; 205 3; 207 213; 
208 45; 209 29; 210 3; 211 1; 217 16; 
218 36; 219 22; 220 426; 221 64; 222 5; 
223 1; 239 1; 249 5; 250 1; 251 4; 
252 9; 253 122; 254 17; 255 4; 264 2; 
265 2; 266 1; 267 7; 268 2; 269 6; 
270 1; 271 1; 276 1; 281 65; 282 18; 
283 11; 284 1; 293 1; 294 2; 295 119; 
296 999; 297 133; 298 21; 299 1; 309 2; 
311 1; 313 1; 315 2; 325 4; 326 1; 
327 10; 328 2; 329 2; 331 6; 332 1; 
341 13; 342 3; 343 5; 346 2; 355 3; 
356 2; 385 5; 386 2; 

