Name: Cyclopropyl fentanyl-d5
InChIKey: OIQSKDSKROTEMN-OUHXUHDZSA-N
Synon: N-(1-phenethylpiperidin-4-yl)-(N-phenyl-d5)cyclopropanecarboxamide
Formula: C23H23D5N2O
MW: 353
ExactMass: 353.251547
DB#: 4662
Comments: Provided by www.caymanchem.com/Forensic.vm / Item#22605 Batch#0507779
Num Peaks: 153
40 2; 41 175; 42 108; 43 15; 44 38; 
45 2; 50 3; 51 9; 52 7; 53 7; 
54 20; 55 23; 56 15; 57 12; 58 2; 
62 1; 63 6; 64 2; 65 35; 66 8; 
67 21; 68 35; 69 415; 70 70; 71 10; 
73 3; 74 1; 75 2; 76 3; 77 45; 
78 20; 79 45; 80 14; 81 14; 82 100; 
83 15; 84 9; 85 1; 89 8; 90 5; 
91 181; 92 17; 93 5; 94 17; 95 22; 
96 130; 97 28; 98 82; 99 13; 100 1; 
102 4; 103 37; 104 28; 105 160; 106 15; 
107 3; 108 8; 109 37; 110 17; 111 12; 
112 3; 115 3; 116 2; 117 7; 118 4; 
119 5; 120 6; 121 10; 122 24; 123 34; 
124 20; 125 7; 128 1; 129 2; 130 11; 
131 5; 132 9; 133 5; 134 41; 135 28; 
136 39; 137 62; 138 11; 139 7; 143 1; 
144 2; 145 1; 146 3; 147 3; 148 8; 
149 11; 150 19; 151 379; 152 43; 153 4; 
154 1; 156 2; 158 3; 159 1; 160 17; 
161 3; 162 4; 163 42; 164 11; 165 7; 
166 22; 167 5; 168 1; 170 1; 174 1; 
176 1; 177 3; 178 3; 179 1; 182 1; 
184 9; 185 8; 186 23; 187 5; 188 15; 
189 3; 190 1; 191 4; 192 16; 193 30; 
194 436; 195 61; 196 4; 205 1; 207 8; 
208 1; 209 1; 218 2; 219 74; 220 11; 
221 1; 233 3; 234 2; 253 3; 259 1; 
260 1; 262 999; 263 188; 264 18; 265 1; 
281 4; 282 1; 283 1; 284 3; 327 1; 
331 1; 351 5; 352 2; 

