Name: 3-Furanyl fentanyl-d5
InChIKey: AEDOTOMIDAMDFC-OUHXUHDZSA-N
Synon: 3-Fu-F-d5
Synon: N-(1-Phenethylpiperidin-4-yl)-N-(phenyl-d5)furan-3-carboxamide
Synon: Furanyl fentanyl 3-furancarboxamide isomer-d5
Formula: C24H21D5N2O2
MW: 379
ExactMass: 379.230812
DB#: 4661
Comments: Provided by www.caymanchem.com/Forensic.vm / Item#21934 Batch#0507778
Num Peaks: 153
40 1; 41 25; 42 98; 43 14; 44 25; 
45 1; 49 1; 50 4; 51 10; 52 8; 
53 9; 54 17; 55 16; 56 13; 57 9; 
58 1; 62 1; 63 6; 64 3; 65 35; 
66 10; 67 41; 68 28; 69 23; 70 36; 
71 5; 73 5; 74 2; 75 2; 76 3; 
77 41; 78 20; 79 40; 80 14; 81 13; 
82 76; 83 11; 84 6; 85 1; 89 8; 
90 4; 91 167; 92 17; 93 7; 94 20; 
95 999; 96 183; 97 26; 98 17; 99 2; 
102 4; 103 34; 104 27; 105 113; 106 12; 
107 3; 108 6; 109 25; 110 11; 111 6; 
115 3; 116 2; 117 6; 118 2; 119 5; 
120 7; 121 6; 122 13; 123 16; 124 10; 
125 3; 126 1; 128 1; 129 1; 130 9; 
131 4; 132 7; 133 4; 134 26; 135 24; 
136 24; 137 29; 138 7; 139 2; 144 4; 
145 1; 146 4; 147 3; 148 6; 149 4; 
150 4; 151 12; 152 2; 156 2; 158 3; 
159 1; 160 10; 161 3; 162 5; 163 70; 
164 13; 165 3; 172 1; 173 1; 174 2; 
175 25; 176 7; 177 3; 178 2; 179 1; 
182 2; 183 1; 184 11; 185 8; 186 17; 
187 6; 188 5; 189 1; 190 1; 191 4; 
192 42; 193 19; 194 7; 195 1; 197 1; 
203 1; 207 13; 208 2; 209 2; 217 1; 
244 8; 245 320; 246 53; 247 5; 253 4; 
254 1; 259 2; 267 1; 281 5; 282 1; 
283 1; 284 4; 285 2; 286 1; 288 649; 
289 125; 290 14; 291 1; 327 1; 331 1; 
341 1; 377 2; 378 1; 

