Name: meta-Fluoroisobutyryl fentanyl
InChIKey: QBNWLXVOLIWDQF-UHFFFAOYSA-N
Synon: 3-FIBF
Synon: m-FIBF
Synon: 3-Fluoroisobutyryl fentanyl
Synon: m-Fluoroisobutyryl fentanyl
Synon: N-(3-fluorophenyl)-N-(1-phenethylpiperidin-4-yl)isobutyramide
Formula: C23H29FN2O
MW: 368
ExactMass: 368.22639
DB#: 4666
Comments: Provided by www.caymanchem.com/Forensic.vm / Item#20206 Batch#0507651
Num Peaks: 166
41 111; 42 146; 43 410; 44 95; 45 3; 
50 6; 51 13; 52 6; 53 8; 54 12; 
55 34; 56 25; 57 22; 58 4; 59 1; 
61 1; 62 3; 63 11; 64 4; 65 41; 
66 4; 67 23; 68 37; 69 42; 70 61; 
71 195; 72 10; 73 10; 74 4; 75 21; 
76 5; 77 58; 78 25; 79 59; 80 13; 
81 7; 82 32; 83 20; 84 23; 85 2; 
87 1; 89 12; 90 6; 91 194; 92 20; 
93 5; 94 22; 95 96; 96 145; 97 22; 
98 8; 99 1; 100 1; 101 3; 102 6; 
103 53; 104 38; 105 213; 106 19; 107 4; 
108 5; 109 29; 110 12; 111 50; 112 9; 
115 5; 116 3; 117 10; 118 3; 119 2; 
120 1; 121 5; 122 53; 123 17; 124 15; 
125 1; 128 2; 129 3; 130 19; 131 7; 
132 10; 133 6; 134 9; 135 24; 136 52; 
137 24; 138 10; 139 15; 140 1; 141 1; 
143 1; 144 5; 145 1; 146 6; 147 4; 
148 66; 149 41; 150 67; 151 12; 152 4; 
154 1; 156 2; 157 1; 158 4; 159 1; 
160 17; 161 4; 162 12; 163 11; 164 373; 
165 45; 166 7; 167 1; 174 1; 175 1; 
176 11; 177 10; 178 6; 179 2; 181 10; 
182 4; 183 1; 184 11; 185 9; 186 25; 
187 5; 188 28; 189 4; 190 3; 191 5; 
192 2; 193 2; 197 1; 203 1; 205 18; 
206 18; 207 470; 208 66; 209 6; 218 1; 
231 1; 234 23; 235 4; 248 3; 249 1; 
253 2; 254 1; 261 2; 267 1; 269 1; 
275 2; 277 999; 278 178; 279 16; 280 1; 
281 8; 282 3; 283 1; 297 3; 325 1; 
327 1; 331 1; 341 1; 355 1; 366 4; 
367 1; 

