Name: para-Fluoro Methoxyacetyl fentanyl
InChIKey: KDXSBALZECTNCT-UHFFFAOYSA-N
Synon: 4-Fluoro Methoxyacetyl fentanyl
Synon: p-Fluoro Methoxyacetyl fentanyl
Synon: N-(4-Fluorophenyl)-2-methoxy-N-(1-phenethylpiperidin-4-yl)acetamide
Formula: C22H27FN2O2
MW: 370
ExactMass: 370.205656
DB#: 4672
Comments: Provided by www.caymanchem.com/Forensic.vm / Item# 21741 Batch# 0503688
Num Peaks: 177
41 27; 42 107; 43 20; 44 47; 45 283; 
46 6; 50 4; 51 9; 52 4; 53 6; 
54 9; 55 23; 56 16; 57 14; 58 23; 
59 2; 61 1; 62 3; 63 8; 64 3; 
65 33; 66 4; 67 19; 68 26; 69 27; 
70 66; 71 5; 72 1; 73 5; 74 3; 
75 16; 76 4; 77 47; 78 20; 79 45; 
80 10; 81 6; 82 26; 83 18; 84 9; 
85 1; 87 1; 88 2; 89 10; 90 5; 
91 169; 92 16; 93 3; 94 16; 95 70; 
96 134; 97 22; 98 10; 100 12; 101 2; 
102 6; 103 40; 104 36; 105 166; 106 15; 
107 3; 108 5; 109 29; 110 17; 111 6; 
112 2; 115 4; 116 4; 117 7; 118 2; 
119 1; 120 1; 121 4; 122 43; 123 18; 
124 28; 125 3; 126 1; 127 1; 128 6; 
129 2; 130 12; 131 5; 132 8; 133 4; 
134 5; 135 16; 136 30; 137 20; 138 9; 
139 21; 140 2; 143 1; 144 4; 145 1; 
146 4; 147 2; 148 45; 149 31; 150 83; 
151 13; 152 3; 153 10; 154 2; 156 2; 
158 2; 159 1; 160 13; 161 4; 162 8; 
163 7; 164 33; 165 4; 166 5; 167 1; 
168 1; 174 2; 175 2; 176 161; 177 26; 
178 15; 179 2; 180 3; 182 1; 183 11; 
184 11; 185 7; 186 24; 187 6; 188 25; 
189 4; 190 5; 191 5; 192 2; 193 2; 
194 1; 195 1; 197 1; 203 1; 204 5; 
205 16; 206 18; 207 36; 208 85; 209 13; 
210 2; 218 1; 219 11; 220 3; 221 1; 
231 2; 233 1; 234 1; 236 196; 237 28; 
238 2; 247 3; 249 4; 250 2; 251 1; 
253 3; 263 1; 267 1; 269 1; 277 1; 
279 999; 280 171; 281 25; 282 3; 283 1; 
297 1; 325 1; 327 1; 331 1; 355 1; 
368 3; 369 1; 

