Name: ortho-Fluoroisobutyryl fentanyl
InChIKey: NEWBKHYGTFTPMC-UHFFFAOYSA-N
Synon: 2-FIBF
Synon: o-FIBF
Synon: ortho-FIBF
Synon: 2-Fluoroisobutyryl fentanyl
Synon: N-(2-fluorophenyl)-N-(1-phenethylpiperidin-4-yl)isobutyramide
Formula: C23H29FN2O
MW: 368
ExactMass: 368.22639
DB#: 4678
Comments: Provided by www.caymanchem.com/Forensic.vm / Item#20207 Batch#0505593
Num Peaks: 159
41 83; 42 106; 43 275; 44 59; 45 2; 
50 3; 51 8; 52 4; 53 6; 54 9; 
55 23; 56 18; 57 16; 58 2; 61 1; 
62 2; 63 7; 64 3; 65 31; 66 3; 
67 18; 68 28; 69 32; 70 52; 71 114; 
72 6; 73 2; 74 2; 75 14; 76 5; 
77 49; 78 18; 79 47; 80 10; 81 5; 
82 26; 83 18; 84 16; 85 2; 89 9; 
90 9; 91 139; 92 15; 93 3; 94 17; 
95 56; 96 118; 97 18; 98 5; 101 2; 
102 11; 103 43; 104 30; 105 185; 106 17; 
107 2; 108 4; 109 29; 110 13; 111 52; 
112 11; 113 1; 115 5; 116 4; 117 12; 
118 6; 119 1; 120 1; 121 5; 122 65; 
123 20; 124 16; 125 1; 128 3; 129 3; 
130 24; 131 8; 132 11; 133 4; 134 8; 
135 16; 136 53; 137 24; 138 10; 139 14; 
140 1; 142 1; 143 3; 144 7; 145 2; 
146 5; 147 2; 148 45; 149 52; 150 69; 
151 11; 152 4; 153 1; 154 1; 156 2; 
157 1; 158 4; 159 2; 160 21; 161 4; 
162 7; 163 10; 164 487; 165 56; 166 7; 
167 1; 170 1; 171 2; 172 1; 174 1; 
175 1; 176 10; 177 7; 178 5; 179 2; 
181 6; 182 4; 183 1; 184 9; 185 8; 
186 27; 187 6; 188 28; 189 4; 190 1; 
191 5; 192 1; 193 1; 205 18; 206 17; 
207 450; 208 62; 209 5; 218 1; 231 1; 
234 26; 235 4; 248 3; 253 2; 257 1; 
261 1; 275 2; 277 999; 278 178; 279 17; 
280 1; 281 4; 282 1; 283 1; 297 3; 
298 1; 325 1; 366 4; 367 1; 

