Name: Cyclobutyl fentanyl-d5
InChIKey: XHRDMQWXMFOAIX-IABJTJBASA-N
Synon: N-(1-Phenethylpiperidin-4-yl)-N-(phenyl-d5)cyclobutanecarboxamide
Formula: C24H25D5N2O
MW: 367
ExactMass: 367.267197
DB#: 4692
Comments: Provided by www.caymanchem.com/Forensic.vm / Item#22425 Batch#0507130
Num Peaks: 180
40 3; 41 31; 42 114; 43 19; 44 45; 
45 2; 49 1; 50 6; 51 13; 52 9; 
53 31; 54 28; 55 462; 56 40; 57 16; 
58 2; 59 1; 61 1; 62 2; 63 7; 
64 3; 65 37; 66 8; 67 23; 68 35; 
69 33; 70 69; 71 12; 73 7; 74 2; 
75 3; 76 4; 77 49; 78 25; 79 55; 
80 18; 81 20; 82 117; 83 99; 84 21; 
85 2; 89 9; 90 5; 91 189; 92 19; 
93 6; 94 24; 95 28; 96 180; 97 38; 
98 122; 99 16; 100 1; 101 1; 102 5; 
103 46; 104 37; 105 204; 106 21; 107 5; 
108 10; 109 48; 110 21; 111 19; 112 3; 
113 1; 115 5; 116 3; 117 9; 118 4; 
119 5; 120 6; 121 11; 122 27; 123 39; 
124 24; 125 9; 126 1; 128 1; 129 2; 
130 13; 131 6; 132 12; 133 8; 134 56; 
135 41; 136 59; 137 78; 138 14; 139 15; 
140 1; 141 1; 143 2; 144 4; 145 2; 
146 5; 147 4; 148 10; 149 9; 150 23; 
151 435; 152 52; 153 7; 154 1; 155 1; 
156 2; 157 1; 158 5; 159 2; 160 25; 
161 6; 162 6; 163 36; 164 12; 165 7; 
166 3; 172 1; 174 1; 175 1; 176 2; 
177 4; 178 5; 179 2; 180 20; 181 6; 
182 3; 184 14; 185 11; 186 29; 187 9; 
188 28; 189 4; 190 1; 191 4; 192 20; 
193 34; 194 469; 195 64; 196 4; 197 1; 
202 1; 204 1; 205 19; 206 3; 207 16; 
208 3; 209 2; 219 1; 221 1; 231 1; 
232 1; 233 29; 234 5; 247 4; 248 19; 
249 4; 253 5; 254 1; 255 1; 256 1; 
267 1; 269 1; 273 1; 274 2; 275 9; 
276 999; 277 191; 278 19; 279 1; 281 7; 
282 3; 283 1; 284 3; 285 1; 312 1; 
327 2; 331 1; 341 1; 365 5; 366 1; 

