Name: Tetrahydrofuran fentanyl-d5
InChIKey: OHJNHKUFSKAANI-GGFWIOISSA-N
Synon: N-(1-Phenethylpiperidin-4-yl)-N-phenyl-d5-tetrahydrofuran-2-carboxamide
Formula: C24H25D5N2O2
MW: 383
ExactMass: 383.262112
DB#: 4698
Comments: Provided by www.caymanchem.com/Forensic.vm / Item#21935 Batch#0507174
Num Peaks: 178
40 3; 41 92; 42 100; 43 156; 44 43; 
45 3; 50 3; 51 7; 52 5; 53 8; 
54 16; 55 34; 56 16; 57 11; 58 3; 
59 1; 62 1; 63 5; 64 2; 65 26; 
66 6; 67 17; 68 32; 69 45; 70 50; 
71 542; 72 24; 73 16; 74 2; 75 3; 
76 3; 77 42; 78 19; 79 46; 80 13; 
81 13; 82 87; 83 14; 84 11; 85 2; 
89 7; 90 4; 91 114; 92 14; 93 4; 
94 18; 95 28; 96 147; 97 39; 98 28; 
99 6; 102 4; 103 38; 104 28; 105 219; 
106 21; 107 4; 108 7; 109 32; 110 16; 
111 10; 112 1; 115 4; 116 2; 117 8; 
118 3; 119 4; 120 4; 121 8; 122 20; 
123 30; 124 26; 125 8; 126 2; 127 1; 
128 1; 129 2; 130 11; 131 5; 132 10; 
133 8; 134 39; 135 29; 136 44; 137 52; 
138 11; 139 16; 140 2; 143 1; 144 3; 
145 2; 146 4; 147 5; 148 8; 149 7; 
150 18; 151 352; 152 41; 153 6; 154 1; 
156 2; 157 1; 158 3; 159 1; 160 17; 
161 4; 162 3; 163 21; 164 8; 165 6; 
166 1; 167 1; 168 1; 170 1; 176 1; 
177 4; 178 4; 179 7; 180 2; 182 1; 
184 10; 185 9; 186 34; 187 8; 188 59; 
189 10; 190 1; 191 7; 192 18; 193 35; 
194 271; 195 39; 196 8; 197 2; 205 2; 
207 40; 208 8; 209 5; 219 2; 221 3; 
222 1; 229 1; 231 4; 233 1; 248 1; 
249 14; 250 4; 251 1; 253 6; 254 1; 
255 1; 262 1; 264 2; 265 1; 267 2; 
269 1; 281 16; 282 4; 283 3; 284 4; 
285 1; 289 2; 290 3; 292 999; 293 194; 
294 22; 295 2; 312 1; 325 1; 327 2; 
331 2; 341 3; 342 1; 343 1; 346 1; 
355 2; 381 3; 382 1; 

