Name: Cyclopentyl fentanyl-d5
InChIKey: PEASFKSPITUZGT-LTTLSEBRSA-N
Synon: N-(1-Phenethylpiperidin-4-yl)-N-(phenyl-d5)cyclopentanecarboxamide
Formula: C25H27D5N2O
MW: 381
ExactMass: 381.282846
DB#: 4694
Comments: Provided by www.caymanchem.com/Forensic.vm / Item#22391 Batch#0507131
Num Peaks: 193
40 4; 41 213; 42 139; 43 24; 44 52; 
45 3; 50 8; 51 16; 52 12; 53 19; 
54 26; 55 55; 56 25; 57 18; 58 3; 
59 1; 61 1; 62 4; 63 10; 64 4; 
65 51; 66 16; 67 83; 68 61; 69 843; 
70 129; 71 19; 72 1; 73 13; 74 4; 
75 4; 76 5; 77 57; 78 32; 79 64; 
80 22; 81 23; 82 129; 83 23; 84 24; 
85 3; 87 1; 89 10; 90 6; 91 198; 
92 24; 93 9; 94 32; 95 39; 96 237; 
97 138; 98 202; 99 28; 100 2; 102 7; 
103 54; 104 50; 105 259; 106 25; 107 6; 
108 13; 109 56; 110 26; 111 19; 112 2; 
113 2; 115 5; 116 3; 117 9; 118 5; 
119 6; 120 8; 121 13; 122 33; 123 49; 
124 33; 125 15; 126 2; 127 1; 128 3; 
129 2; 130 16; 131 8; 132 14; 133 10; 
134 63; 135 44; 136 70; 137 86; 138 16; 
139 21; 140 2; 141 1; 142 1; 143 2; 
144 5; 145 3; 146 7; 147 6; 148 14; 
149 11; 150 28; 151 452; 152 52; 153 15; 
154 3; 155 1; 156 5; 157 1; 158 6; 
159 1; 160 31; 161 7; 162 4; 163 18; 
164 12; 165 8; 166 2; 167 3; 168 1; 
170 1; 171 1; 172 2; 173 1; 174 3; 
175 2; 176 5; 177 7; 178 8; 179 3; 
180 3; 181 1; 182 2; 183 1; 184 19; 
185 17; 186 33; 187 11; 188 48; 189 7; 
190 1; 191 5; 192 24; 193 43; 194 553; 
195 82; 196 6; 197 2; 205 4; 207 24; 
208 5; 209 4; 223 1; 231 4; 247 10; 
248 3; 251 1; 253 8; 254 2; 255 1; 
256 1; 259 1; 261 2; 262 1; 265 1; 
267 2; 268 1; 269 2; 270 1; 272 1; 
281 11; 282 4; 283 3; 284 4; 285 1; 
287 2; 288 2; 290 999; 291 204; 292 22; 
293 1; 312 1; 313 1; 327 3; 328 1; 
331 2; 340 1; 341 3; 343 1; 346 1; 
355 1; 379 5; 380 2; 

