Name: Acrylfentanyl-d5
InChIKey: RFQNLMWUIJJEQF-SCUSKTIWSA-N
Synon: N-(1-Phenethylpiperidin-4-yl)-N-(phenyl-d5)acrylamide
Synon: Acryloylfentanyl-d5
Formula: C22H21D5N2O
MW: 339
ExactMass: 339.235897
DB#: 4699
Comments: Provided by www.caymanchem.com/Forensic.vm / Item#21828 Batch#0506439
Num Peaks: 160
40 1; 41 28; 42 119; 43 16; 44 48; 
45 2; 50 3; 51 10; 52 6; 53 9; 
54 22; 55 285; 56 26; 57 13; 58 2; 
59 1; 62 1; 63 7; 64 3; 65 46; 
66 7; 67 21; 68 29; 69 27; 70 43; 
71 6; 72 1; 73 8; 74 2; 75 2; 
76 3; 77 50; 78 21; 79 49; 80 16; 
81 15; 82 109; 83 16; 84 10; 85 1; 
86 1; 89 11; 90 6; 91 211; 92 20; 
93 4; 94 17; 95 20; 96 136; 97 21; 
98 28; 99 8; 101 1; 102 4; 103 40; 
104 27; 105 147; 106 13; 107 4; 108 10; 
109 41; 110 18; 111 15; 112 1; 115 3; 
116 1; 117 8; 118 3; 119 4; 120 5; 
121 10; 122 26; 123 38; 124 18; 125 9; 
126 1; 128 1; 129 2; 130 10; 131 5; 
132 10; 133 7; 134 42; 135 55; 136 44; 
137 75; 138 13; 139 11; 140 1; 143 1; 
144 3; 145 1; 146 3; 147 4; 148 9; 
149 10; 150 18; 151 373; 152 48; 153 9; 
154 1; 156 2; 158 3; 159 1; 160 17; 
161 4; 162 7; 163 104; 164 18; 165 6; 
166 1; 174 1; 175 1; 176 2; 177 10; 
178 3; 179 1; 182 1; 184 8; 185 5; 
186 22; 187 5; 188 10; 189 1; 190 1; 
191 4; 192 15; 193 19; 194 114; 195 16; 
196 1; 197 1; 203 1; 204 11; 205 346; 
206 51; 207 23; 208 4; 209 2; 219 2; 
220 1; 245 1; 247 22; 248 999; 249 170; 
250 18; 251 2; 253 4; 254 1; 255 1; 
265 1; 267 1; 281 7; 282 2; 283 1; 
284 4; 285 1; 327 1; 331 1; 337 2; 

