Name: ortho-Fluoro Acrylfentanyl
InChIKey: ROBNYLIAYXEIFM-UHFFFAOYSA-N
Synon: 2-Fluoro Acrylfentanyl
Synon: o-Fluoro Acrylfentanyl
Synon: N-(2-Fluorophenyl)-N-(1-phenethylpiperidin-4-yl)acrylamide
Formula: C22H25FN2O
MW: 352
ExactMass: 352.195091
DB#: 4706
Comments: Provided by www.caymanchem.com/Forensic.vm / Item#21932 Batch#0505589
Num Peaks: 196
41 52; 42 208; 43 29; 44 94; 45 6; 
49 2; 50 14; 51 25; 52 8; 53 17; 
54 19; 55 409; 56 43; 57 24; 58 2; 
59 1; 61 2; 62 5; 63 17; 64 7; 
65 59; 66 5; 67 37; 68 35; 69 36; 
70 56; 71 5; 73 21; 74 8; 75 30; 
76 12; 77 83; 78 43; 79 73; 80 20; 
81 11; 82 29; 83 22; 84 15; 85 2; 
86 2; 87 1; 88 1; 89 16; 90 11; 
91 236; 92 26; 93 8; 94 31; 95 68; 
96 185; 97 20; 98 33; 99 3; 101 6; 
102 16; 103 67; 104 61; 105 194; 106 20; 
107 7; 108 6; 109 28; 110 12; 111 51; 
112 13; 113 1; 115 11; 116 7; 117 16; 
118 6; 119 3; 120 4; 121 14; 122 73; 
123 20; 124 19; 125 3; 126 1; 127 2; 
128 6; 129 6; 130 29; 131 8; 132 14; 
133 10; 134 11; 135 26; 136 55; 137 21; 
138 10; 139 30; 140 3; 141 1; 142 1; 
143 2; 144 12; 145 4; 146 5; 147 6; 
148 79; 149 49; 150 79; 151 13; 152 1; 
154 1; 155 2; 156 6; 157 2; 158 4; 
159 3; 160 13; 161 1; 162 9; 163 9; 
164 433; 165 56; 166 11; 167 3; 170 1; 
171 1; 172 1; 174 1; 175 2; 176 74; 
177 16; 178 6; 179 3; 180 1; 181 1; 
182 3; 183 1; 184 17; 185 13; 186 23; 
187 9; 188 12; 189 2; 190 5; 191 9; 
192 6; 193 7; 194 1; 195 3; 196 2; 
197 2; 198 1; 202 1; 203 2; 205 17; 
206 11; 207 240; 208 32; 209 7; 217 2; 
218 312; 219 45; 220 4; 221 1; 222 1; 
232 3; 233 1; 235 1; 239 1; 249 1; 
250 1; 251 2; 253 12; 254 2; 255 1; 
259 2; 261 999; 262 163; 263 18; 264 1; 
265 3; 267 4; 268 1; 269 1; 281 16; 
282 4; 283 4; 284 1; 297 3; 315 1; 
325 2; 327 3; 328 2; 329 1; 331 3; 
341 3; 342 1; 343 1; 344 1; 346 1; 
350 2; 

