Name: Methoxyacetyl fentanyl-d5
InChIKey: SADNVKRDSWWFTK-LKOJFEAXSA-N
Synon: 2-Methoxy-N-phenyl-d5-N-[1-(2-phenylethyl)-4-piperidinyl]-acetamide
Formula: C22H23D5N2O2
MW: 357
ExactMass: 357.246462
DB#: 4704
Comments: Provided by www.caymanchem.com/Forensic.vm / Item#21830 Batch#0504264
Num Peaks: 185
41 39; 42 155; 43 25; 44 49; 45 354; 
46 8; 47 1; 50 5; 51 12; 52 10; 
53 12; 54 26; 55 35; 56 23; 57 16; 
58 36; 59 4; 62 2; 63 9; 64 3; 
65 48; 66 10; 67 24; 68 39; 69 38; 
70 99; 71 11; 72 2; 73 6; 74 3; 
75 3; 76 3; 77 59; 78 27; 79 62; 
80 21; 81 18; 82 131; 83 21; 84 12; 
85 2; 88 4; 89 11; 90 6; 91 224; 
92 24; 93 6; 94 25; 95 37; 96 205; 
97 47; 98 29; 99 4; 100 15; 101 1; 
102 7; 103 51; 104 43; 105 229; 106 22; 
107 5; 108 9; 109 48; 110 27; 111 40; 
112 5; 113 1; 115 5; 116 4; 117 11; 
118 5; 119 4; 120 5; 121 9; 122 25; 
123 38; 124 29; 125 17; 126 2; 127 2; 
128 7; 129 3; 130 13; 131 5; 132 11; 
133 7; 134 45; 135 40; 136 47; 137 119; 
138 18; 139 29; 140 14; 141 3; 142 1; 
143 1; 144 4; 145 1; 146 6; 147 4; 
148 10; 149 9; 150 9; 151 51; 152 7; 
153 6; 154 2; 156 3; 157 1; 158 3; 
159 1; 160 23; 161 6; 162 36; 163 230; 
164 35; 165 24; 166 4; 167 4; 168 1; 
169 1; 170 14; 171 3; 172 1; 175 1; 
176 2; 177 6; 178 5; 179 3; 180 1; 
181 2; 182 2; 183 1; 184 13; 185 9; 
186 31; 187 7; 188 34; 189 5; 190 3; 
191 9; 192 19; 193 25; 194 24; 195 105; 
196 14; 197 2; 205 2; 206 14; 207 21; 
208 4; 209 3; 218 1; 219 1; 220 1; 
221 1; 222 2; 223 196; 224 30; 225 3; 
231 1; 233 2; 236 3; 237 2; 238 1; 
239 1; 249 1; 250 1; 253 4; 254 1; 
264 3; 266 999; 267 170; 268 18; 269 2; 
281 8; 282 3; 283 1; 284 2; 312 1; 
327 1; 341 1; 346 1; 355 3; 356 1; 

