Name: meta-Fluoro Methoxyacetyl fentanyl
InChIKey: GLYKZHGNYYYJLH-UHFFFAOYSA-N
Synon: N-(3-Fluorophenyl)-2-methoxy-N-(1-phenethylpiperidin-4-yl)acetamide
Synon: m-Fluoro Methoxyacetyl fentanyl
Synon: 3-Fluoro Methoxyacetyl fentanyl
Formula: C22H27FN2O2
MW: 370
ExactMass: 370.205656
DB#: 4700
Comments: Provided by www.caymanchem.com/Forensic.vm / Item#21740 Batch#0506028
Num Peaks: 180
41 28; 42 113; 43 22; 44 49; 45 307; 
46 7; 47 1; 50 4; 51 9; 52 4; 
53 7; 54 9; 55 24; 56 17; 57 14; 
58 28; 59 2; 61 1; 62 2; 63 9; 
64 3; 65 36; 66 4; 67 19; 68 27; 
69 29; 70 72; 71 5; 72 2; 73 8; 
74 4; 75 16; 76 4; 77 49; 78 20; 
79 47; 80 10; 81 6; 82 26; 83 14; 
84 11; 85 1; 88 2; 89 10; 90 5; 
91 176; 92 17; 93 4; 94 17; 95 80; 
96 138; 97 24; 98 9; 99 1; 100 15; 
101 2; 102 6; 103 41; 104 33; 105 177; 
106 16; 107 3; 108 4; 109 24; 110 12; 
111 10; 112 2; 115 4; 116 4; 117 8; 
118 3; 119 1; 120 1; 121 4; 122 39; 
123 16; 124 25; 125 1; 126 2; 127 2; 
128 9; 129 3; 130 14; 131 5; 132 8; 
133 4; 134 6; 135 19; 136 31; 137 20; 
138 11; 139 20; 140 2; 143 1; 144 4; 
145 1; 146 4; 147 3; 148 53; 149 28; 
150 86; 151 12; 152 4; 153 8; 154 2; 
155 1; 156 2; 157 1; 158 3; 160 13; 
161 5; 162 9; 163 6; 164 28; 165 4; 
166 4; 167 1; 168 1; 174 2; 175 3; 
176 169; 177 27; 178 17; 179 3; 180 3; 
182 1; 183 8; 184 10; 185 7; 186 23; 
187 5; 188 28; 189 5; 190 5; 191 4; 
192 2; 193 1; 194 1; 195 1; 197 1; 
204 4; 205 18; 206 16; 207 28; 208 67; 
209 11; 210 1; 218 1; 219 12; 220 3; 
221 1; 231 1; 233 1; 236 129; 237 19; 
238 2; 247 3; 249 4; 250 2; 251 2; 
253 5; 254 1; 255 1; 263 1; 267 1; 
269 1; 277 2; 279 999; 280 171; 281 23; 
282 3; 283 1; 297 1; 325 1; 327 2; 
331 1; 341 1; 343 1; 368 3; 369 1; 

