Name: ortho-Methyl Furanyl fentanyl
InChIKey: BFKNHOZXFOQILA-UHFFFAOYSA-N
Synon: N-(1-phenethylpiperidin-4-yl)-N-(o-tolyl)furan-2-carboxamide
Synon: 2-Methyl Furanyl fentanyl
Synon: o-Methyl Furanyl fentanyl
Formula: C25H28N2O2
MW: 388
ExactMass: 388.215078
DB#: 4716
Comments: Provided by www.caymanchem.com/Forensic.vm / Item#22779 Batch#0510307
Num Peaks: 171
41 42; 42 155; 43 21; 44 48; 45 1; 
49 1; 50 8; 51 21; 52 11; 53 14; 
54 12; 55 31; 56 18; 57 13; 58 2; 
62 3; 63 13; 64 5; 65 78; 66 11; 
67 51; 68 37; 69 34; 70 42; 71 5; 
73 8; 74 4; 75 4; 76 6; 77 84; 
78 38; 79 69; 80 19; 81 19; 82 30; 
83 5; 84 4; 86 1; 87 1; 88 1; 
89 22; 90 16; 91 339; 92 33; 93 9; 
94 38; 95 999; 96 269; 97 30; 98 22; 
99 2; 101 2; 102 8; 103 53; 104 51; 
105 191; 106 52; 107 12; 108 4; 109 2; 
110 1; 115 14; 116 8; 117 32; 118 58; 
119 10; 120 5; 121 3; 124 1; 126 5; 
127 6; 128 12; 129 12; 130 46; 131 20; 
132 37; 133 12; 134 9; 135 3; 136 1; 
137 23; 138 9; 139 8; 140 1; 141 2; 
142 3; 143 9; 144 53; 145 27; 146 32; 
147 6; 148 3; 149 1; 153 1; 154 6; 
155 2; 156 9; 157 4; 158 16; 159 5; 
160 23; 161 3; 163 1; 165 1; 166 2; 
167 3; 168 2; 169 1; 170 5; 171 3; 
172 220; 173 37; 174 4; 177 1; 180 1; 
182 5; 183 3; 184 60; 185 24; 186 31; 
187 12; 188 10; 189 1; 191 2; 192 1; 
193 2; 194 1; 195 1; 196 1; 197 2; 
198 1; 199 1; 200 1; 201 31; 202 15; 
203 6; 207 13; 208 3; 209 3; 210 1; 
211 1; 212 1; 224 12; 225 1; 226 52; 
227 9; 228 1; 249 1; 251 1; 253 4; 
254 534; 255 94; 256 10; 267 2; 268 2; 
269 1; 281 5; 282 1; 283 1; 293 1; 
294 1; 295 1; 297 849; 298 169; 299 19; 
300 1; 327 1; 331 1; 341 1; 355 1; 
386 3; 

