Name: Cyclohexyl fentanyl-d5
InChIKey: CWLVCTNETVWMMZ-CEBJTGGESA-N
Synon: N-(1-Phenethylpiperidin-4-yl)-N-(phenyl-d5)cyclohexanecarboxamide
Formula: C26H29D5N2O
MW: 395
ExactMass: 395.298498
DB#: 4714
Comments: Provided by www.caymanchem.com/Forensic.vm / Item#22454 Batch#0507394
Num Peaks: 177
40 2; 41 117; 42 106; 43 26; 44 42; 
45 3; 50 6; 51 14; 52 10; 53 22; 
54 31; 55 292; 56 33; 57 18; 58 2; 
59 1; 62 3; 63 8; 64 3; 65 38; 
66 9; 67 47; 68 40; 69 36; 70 70; 
71 12; 72 1; 73 10; 74 3; 75 3; 
76 3; 77 51; 78 26; 79 66; 80 21; 
81 44; 82 112; 83 577; 84 61; 85 4; 
86 1; 89 9; 90 5; 91 178; 92 20; 
93 6; 94 25; 95 31; 96 192; 97 45; 
98 122; 99 19; 100 1; 102 5; 103 44; 
104 39; 105 228; 106 22; 107 6; 108 11; 
109 54; 110 28; 111 50; 112 4; 113 1; 
115 5; 116 1; 117 9; 118 3; 119 7; 
120 7; 121 11; 122 28; 123 46; 124 32; 
125 12; 126 1; 127 1; 128 1; 129 2; 
130 13; 131 7; 132 12; 133 8; 134 57; 
135 37; 136 64; 137 73; 138 15; 139 24; 
140 3; 142 1; 143 1; 144 3; 145 1; 
146 5; 147 5; 148 11; 149 9; 150 21; 
151 350; 152 41; 153 11; 154 2; 155 1; 
156 3; 158 5; 159 1; 160 29; 161 7; 
162 5; 163 15; 164 10; 165 8; 166 2; 
167 1; 172 1; 174 1; 175 1; 176 1; 
177 4; 178 6; 179 1; 180 1; 182 3; 
183 2; 184 14; 185 13; 186 34; 187 11; 
188 41; 189 8; 190 2; 191 7; 192 29; 
193 43; 194 497; 195 70; 196 5; 197 2; 
205 2; 207 22; 208 17; 209 6; 210 1; 
231 2; 249 1; 253 7; 254 1; 255 1; 
256 1; 261 8; 262 1; 265 1; 267 1; 
269 1; 275 2; 281 9; 282 3; 283 2; 
284 4; 288 1; 301 2; 302 4; 304 999; 
305 216; 306 25; 307 1; 325 1; 327 2; 
331 2; 341 1; 343 1; 346 1; 355 1; 
393 4; 394 2; 

