Name: 4-Fluoroisobutyryl fentanyl-d7 (Not Certified by NIST)
InChIKey: OZDOSQNUJIXEOR-KOYUMYJKSA-N
Synon: FIBF-d7
Synon: 4-FIBF-d7
Synon: N-(4-fluorophenyl)-2-(methyl-d3)-N-(1-phenethylpiperidin-4-yl)propanamide-2,3,3,3-d4
Formula: C23H22D7FN2O
MW: 375
ExactMass: 375.270329
DB#: 4730
Comments: Note: Spectrum not certified by NIST / Provided by www.caymanchem.com/Forensic.vm / Item#22621 Batch#0509668
Num Peaks: 169
40 1; 41 37; 42 153; 43 27; 44 54; 
45 34; 46 82; 47 4; 48 10; 49 49; 
50 464; 51 29; 52 7; 53 8; 54 13; 
55 27; 56 24; 57 25; 58 8; 59 1; 
60 1; 61 2; 62 3; 63 11; 64 4; 
65 51; 66 5; 67 23; 68 38; 69 39; 
70 69; 71 9; 72 1; 73 4; 74 5; 
75 24; 76 10; 77 84; 78 171; 79 72; 
80 15; 81 8; 82 34; 83 21; 84 13; 
85 6; 86 1; 87 1; 89 14; 90 8; 
91 241; 92 24; 93 6; 94 23; 95 106; 
96 153; 97 25; 98 6; 101 2; 102 6; 
103 55; 104 37; 105 215; 106 20; 107 4; 
108 5; 109 31; 110 13; 111 15; 112 35; 
113 7; 114 1; 115 5; 116 3; 117 10; 
118 3; 119 1; 120 1; 121 7; 122 60; 
123 29; 124 11; 125 5; 127 1; 128 2; 
129 2; 130 19; 131 7; 132 11; 133 4; 
134 10; 135 22; 136 36; 137 39; 138 9; 
139 14; 140 2; 141 1; 142 2; 143 2; 
144 4; 145 2; 146 5; 147 2; 148 62; 
149 58; 150 67; 151 21; 152 3; 153 2; 
154 1; 156 2; 157 1; 158 4; 159 1; 
160 19; 161 5; 162 8; 163 11; 164 21; 
165 420; 166 48; 167 5; 168 1; 169 1; 
170 2; 171 5; 172 1; 175 2; 176 18; 
177 11; 178 4; 179 2; 180 1; 182 1; 
184 9; 185 7; 186 29; 187 6; 188 25; 
189 6; 190 3; 191 4; 193 1; 205 20; 
206 23; 207 17; 208 462; 209 65; 210 4; 
224 1; 240 5; 241 46; 242 7; 253 2; 
255 4; 256 1; 267 1; 269 1; 281 4; 
282 11; 283 109; 284 999; 285 175; 286 18; 
287 1; 297 2; 373 3; 374 1; 

