Name: 4-Fluorobutyrylfentanyl
InChIKey: QZFMCYUBPSLOBP-UHFFFAOYSA-N
Synon: 4F-BF
Synon: 1-((4-fluorophenyl)(1-phenethylpiperidin-4-yl)amino)butan-1-one
Synon: 4-Fluorobutyrfentanyl
Formula: C23H29FN2O
MW: 368
ExactMass: 368.22639
CAS#: 244195-31-1
DB#: 4750
Comments: ENFSI / NFL Slovenija (RESPONSE project AG JUST/2013/ISEC/DRUGS/AG/6413); confirmed by NMR
Num Peaks: 147
51 13; 52 6; 53 12; 54 15; 55 44; 
56 34; 57 27; 58 4; 59 1; 62 1; 
63 6; 64 2; 65 29; 66 4; 67 28; 
68 37; 69 47; 70 78; 71 150; 72 8; 
73 2; 74 2; 75 17; 76 4; 77 59; 
78 20; 79 61; 80 14; 81 7; 82 35; 
83 18; 84 17; 85 2; 89 6; 90 3; 
91 90; 92 11; 93 3; 94 23; 95 96; 
96 160; 97 25; 98 7; 99 1; 100 1; 
101 2; 103 57; 104 33; 105 247; 106 22; 
107 3; 108 4; 109 30; 110 16; 111 65; 
112 14; 113 2; 115 7; 116 3; 117 12; 
118 3; 119 1; 120 1; 121 5; 122 61; 
123 20; 124 20; 125 2; 128 2; 129 3; 
130 20; 131 7; 132 12; 133 4; 134 12; 
135 21; 136 66; 137 22; 138 9; 139 16; 
140 1; 141 2; 143 2; 144 5; 145 2; 
146 6; 147 2; 148 61; 149 49; 150 88; 
151 14; 152 3; 153 1; 154 1; 155 1; 
156 1; 158 3; 159 1; 160 18; 161 4; 
162 9; 164 633; 165 75; 166 8; 167 1; 
174 1; 175 1; 176 26; 177 10; 178 6; 
179 2; 181 6; 182 5; 184 14; 185 10; 
186 29; 187 6; 188 28; 189 4; 190 2; 
191 4; 192 2; 193 1; 204 1; 205 13; 
207 427; 208 62; 209 5; 231 2; 232 1; 
234 56; 235 9; 236 1; 248 6; 249 2; 
261 1; 275 3; 277 999; 278 191; 279 20; 
280 1; 281 5; 282 1; 297 2; 325 1; 
366 5; 367 2; 

