Name: ortho-Methyl Acetyl fentanyl
InChIKey: GRDWUDZBHWHLSH-UHFFFAOYSA-N
Synon: 2-Methyl Acetyl fentanyl
Synon: o-Methyl Acetyl fentanyl
Synon: N-(2-methylphenyl)-N-[1-(2-phenylethyl)-4-piperidinyl]-acetamide
Formula: C22H28N2O
MW: 336
ExactMass: 336.220163
CAS#: 90736-11-1
DB#: 4845
Comments: Provided by www.caymanchem.com/app/template/landing%2CForensic.vm / Item#23548 Batch#0516520
Num Peaks: 106
41 39; 42 174; 43 211; 44 97; 45 3; 
50 6; 51 17; 52 8; 53 11; 54 13; 
55 24; 56 22; 57 13; 58 2; 62 3; 
63 12; 64 4; 65 84; 66 8; 67 28; 
68 27; 69 27; 70 44; 71 5; 72 2; 
74 2; 75 2; 76 5; 77 82; 78 33; 
79 68; 80 16; 81 6; 82 28; 83 4; 
84 6; 89 23; 90 16; 91 324; 92 31; 
93 9; 94 19; 95 23; 96 141; 97 18; 
98 5; 102 7; 103 52; 104 43; 105 198; 
106 49; 107 34; 108 19; 109 2; 115 11; 
116 6; 117 49; 118 94; 119 14; 120 17; 
121 2; 127 2; 128 5; 129 6; 130 67; 
131 34; 132 80; 133 12; 134 14; 135 2; 
139 5; 142 2; 143 8; 144 58; 145 44; 
146 66; 147 8; 148 3; 149 7; 150 6; 
156 4; 157 2; 158 13; 159 7; 160 646; 
161 79; 162 7; 170 2; 171 2; 172 110; 
173 22; 174 5; 184 8; 185 7; 186 25; 
187 8; 188 10; 202 432; 203 176; 204 22; 
205 2; 216 7; 245 999; 246 163; 247 14; 
334 4; 

