Name: para-Fluoro Crotonyl fentanyl
InChIKey: AXNCZLWDQLHJBM-QHHAFSJGSA-N
Synon: 4-Fluoro Crotonyl fentanyl
Synon: p-Fluoro Crotonyl fentanyl
Synon: (E)-N-(4-fluorophenyl)-N-(1-phenethylpiperidin-4-yl)but-2-enamide
Formula: C23H27FN2O
MW: 366
ExactMass: 366.210741
DB#: 4846
Comments: Provided by www.caymanchem.com/app/template/landing%2CForensic.vm / Item#23544 Batch#0518813
Num Peaks: 121
40 8; 41 148; 42 130; 43 22; 44 57; 
45 2; 50 4; 51 9; 52 4; 53 8; 
54 10; 55 21; 56 20; 57 17; 58 2; 
62 2; 63 7; 64 2; 65 33; 66 4; 
67 20; 68 31; 69 666; 70 74; 71 6; 
74 2; 75 17; 76 3; 77 45; 78 16; 
79 47; 80 10; 81 5; 82 23; 83 13; 
84 11; 89 9; 90 5; 91 142; 92 15; 
93 3; 94 15; 95 79; 96 133; 97 16; 
98 5; 100 2; 101 2; 102 4; 103 40; 
104 24; 105 157; 106 14; 107 3; 108 5; 
109 22; 110 8; 111 19; 112 6; 115 5; 
116 2; 117 8; 118 2; 121 6; 122 50; 
123 17; 124 10; 128 2; 129 2; 130 15; 
131 5; 132 8; 133 5; 134 8; 135 20; 
136 39; 137 15; 138 5; 139 8; 144 3; 
146 4; 147 2; 148 53; 149 41; 150 57; 
151 10; 152 3; 158 3; 160 17; 161 4; 
162 17; 163 10; 164 310; 165 35; 166 3; 
176 50; 177 13; 178 5; 179 5; 180 4; 
184 6; 185 4; 186 23; 187 4; 188 10; 
189 2; 190 2; 191 3; 205 15; 207 425; 
208 56; 209 4; 232 90; 233 14; 246 4; 
275 999; 276 172; 277 16; 297 8; 298 2; 
364 2; 

