Name: ortho-Methyl Cyclopropyl fentanyl
InChIKey: BFQXWRBDVXLPEX-UHFFFAOYSA-N
Synon: 2-Methyl Cyclopropyl fentanyl
Synon: o-Methyl Cyclopropyl fentanyl
Synon: N-(1-phenethylpiperidin-4-yl)-N-(o-tolyl)cyclopropanecarboxamide
Formula: C24H30N2O
MW: 362
ExactMass: 362.235813
DB#: 4849
Comments: Provided by www.caymanchem.com/app/template/landing%2CForensic.vm / Item#23043 Batch#0518730
Num Peaks: 114
40 4; 41 215; 42 143; 43 21; 44 56; 
45 2; 50 5; 51 14; 52 7; 53 10; 
54 12; 55 31; 56 21; 57 15; 58 3; 
62 2; 63 10; 64 4; 65 69; 66 6; 
67 24; 68 33; 69 408; 70 70; 71 7; 
73 2; 74 2; 75 2; 76 4; 77 68; 
78 28; 79 64; 80 14; 81 5; 82 28; 
83 4; 84 7; 85 2; 89 19; 90 14; 
91 288; 92 27; 93 7; 94 19; 95 23; 
96 147; 97 19; 98 5; 102 6; 103 50; 
104 43; 105 219; 106 37; 107 35; 108 13; 
109 2; 112 2; 115 12; 116 8; 117 43; 
118 84; 119 13; 120 11; 128 6; 129 7; 
130 59; 131 28; 132 48; 133 10; 134 14; 
139 6; 142 2; 143 8; 144 56; 145 38; 
146 56; 147 8; 148 3; 156 5; 157 3; 
158 17; 159 8; 160 581; 161 71; 162 6; 
170 3; 171 2; 172 65; 173 18; 174 5; 
175 7; 176 4; 184 9; 185 8; 186 28; 
187 10; 188 20; 189 3; 200 2; 201 13; 
203 494; 204 71; 205 5; 214 2; 228 124; 
229 22; 230 2; 242 5; 243 2; 271 999; 
272 187; 273 19; 293 2; 360 4; 

