Name: ortho-Methyl Acrylfentanyl
InChIKey: OGVFVSLKWMUIGR-UHFFFAOYSA-N
Synon: 2-Methyl Acrylfentanyl
Synon: o-Methyl Acrylfentanyl
Synon: 2-Methyl Acryloylfentanyl
Synon: o-Methyl Acryloylfentanyl
Synon: N-(1-phenethylpiperidin-4-yl)-N-(o-tolyl)acrylamide
Formula: C23H28N2O
MW: 348
ExactMass: 348.220163
DB#: 4850
Comments: Provided by www.caymanchem.com/app/template/landing%2CForensic.vm / Item#23036 Batch#0518530
Num Peaks: 110
41 40; 42 162; 43 22; 44 73; 45 2; 
50 5; 51 16; 52 7; 53 11; 54 16; 
55 314; 56 32; 57 14; 58 3; 62 2; 
63 12; 64 4; 65 84; 66 7; 67 27; 
68 28; 69 29; 70 45; 71 6; 74 2; 
75 5; 76 5; 77 76; 78 30; 79 67; 
80 15; 81 6; 82 27; 83 5; 84 7; 
89 22; 90 16; 91 329; 92 30; 93 6; 
94 18; 95 19; 96 163; 97 19; 98 8; 
102 7; 103 53; 104 43; 105 202; 106 34; 
107 19; 108 11; 109 2; 115 16; 116 9; 
117 49; 118 84; 119 13; 120 13; 121 2; 
127 2; 128 6; 129 6; 130 60; 131 29; 
132 50; 133 10; 134 14; 135 2; 139 7; 
142 3; 143 10; 144 82; 145 41; 146 62; 
147 8; 148 2; 156 4; 157 3; 158 14; 
159 7; 160 500; 161 63; 162 10; 170 3; 
171 3; 172 132; 173 26; 174 5; 184 10; 
185 6; 186 32; 187 10; 188 14; 189 2; 
201 13; 202 7; 203 99; 204 15; 214 511; 
215 78; 216 7; 228 5; 229 2; 257 999; 
258 173; 259 19; 260 2; 293 2; 346 2; 

