Name: para-Methoxy Methoxyacetyl fentanyl
InChIKey: UYPGPJKUKWRQGQ-UHFFFAOYSA-N
Synon: 4-Methoxy Methoxyacetyl fentanyl
Synon: p-Methoxy Methoxyacetyl fentanyl
Synon: 2-Methoxy-N-(4-methoxyphenyl)-N-(1-phenethylpiperidin-4-yl)acetamide
Formula: C23H30N2O3
MW: 382
ExactMass: 382.225643
DB#: 4856
Comments: Provided by www.caymanchem.com/app/template/landing%2CForensic.vm / Item#23199 Batch#0513955
Num Peaks: 160
41 39; 42 134; 43 20; 44 36; 45 332; 
46 8; 50 8; 51 20; 52 16; 53 14; 
54 13; 55 32; 56 14; 57 11; 58 32; 
59 2; 62 5; 63 18; 64 16; 65 52; 
66 8; 67 28; 68 35; 69 15; 70 115; 
71 6; 73 13; 74 5; 75 3; 76 8; 
77 95; 78 51; 79 78; 80 26; 81 5; 
82 31; 83 7; 84 3; 88 4; 89 12; 
90 7; 91 214; 92 48; 93 11; 94 30; 
95 28; 96 215; 97 36; 98 9; 100 10; 
101 2; 102 5; 103 60; 104 58; 105 259; 
106 36; 107 23; 108 29; 109 6; 115 6; 
116 4; 117 20; 118 11; 119 8; 120 22; 
121 47; 122 59; 123 26; 124 5; 127 2; 
128 4; 129 3; 130 21; 131 13; 132 28; 
133 19; 134 71; 135 45; 136 75; 137 4; 
139 24; 143 2; 144 4; 145 4; 146 28; 
147 18; 148 42; 149 39; 150 13; 151 3; 
154 2; 156 4; 157 3; 158 9; 159 5; 
160 73; 161 29; 162 42; 163 11; 164 3; 
165 10; 166 2; 172 2; 173 2; 174 10; 
175 12; 176 65; 177 11; 178 8; 179 2; 
182 2; 183 2; 184 12; 185 8; 186 41; 
187 11; 188 345; 189 52; 190 20; 191 5; 
192 3; 193 2; 195 49; 196 6; 197 2; 
202 6; 203 6; 207 23; 208 5; 209 6; 
216 10; 217 22; 218 29; 219 16; 220 109; 
221 11; 222 2; 231 15; 232 2; 248 283; 
249 45; 250 2; 253 9; 254 2; 260 2; 
261 4; 281 9; 282 3; 283 2; 289 2; 
291 999; 292 182; 293 16; 294 2; 309 2; 
325 2; 331 2; 341 3; 342 2; 380 3; 

