Name: para-Methyl Acetyl fentanyl
InChIKey: JNQPTABAZAHVEN-UHFFFAOYSA-N
Synon: 4-Methyl Acetyl fentanyl
Synon: p-Methyl Acetyl fentanyl
Synon: N-(1-phenethylpiperidin-4-yl)-N-(p-tolyl)acetamide
Formula: C22H28N2O
MW: 336
ExactMass: 336.220163
DB#: 4859
Comments: Provided by www.caymanchem.com/app/template/landing%2CForensic.vm / Item#23191 Batch#0514281
Num Peaks: 111
41 44; 42 181; 43 328; 44 70; 45 3; 
50 10; 51 24; 52 14; 53 14; 54 15; 
55 25; 56 23; 57 7; 62 4; 63 17; 
64 7; 65 104; 66 10; 67 30; 68 34; 
69 32; 70 56; 71 5; 72 2; 73 5; 
74 4; 75 4; 76 8; 77 114; 78 46; 
79 89; 80 20; 81 7; 82 18; 83 6; 
84 3; 89 28; 90 23; 91 388; 92 38; 
93 11; 94 20; 95 16; 96 149; 97 20; 
98 2; 102 4; 103 59; 104 48; 105 218; 
106 120; 107 101; 108 18; 115 9; 116 8; 
117 19; 118 59; 119 21; 120 26; 121 3; 
128 4; 129 5; 130 58; 131 37; 132 120; 
133 28; 134 17; 135 4; 139 4; 142 2; 
143 7; 144 64; 145 57; 146 95; 147 15; 
148 3; 149 30; 150 9; 156 3; 157 4; 
158 17; 159 10; 160 661; 161 82; 162 9; 
170 2; 172 132; 173 24; 174 7; 175 2; 
184 5; 185 9; 186 26; 187 9; 188 12; 
189 2; 201 3; 202 414; 203 186; 204 24; 
205 2; 207 4; 208 3; 216 6; 245 999; 
246 165; 247 16; 253 3; 281 2; 334 5; 
335 2; 

