Name: para-Methoxy Furanyl fentanyl
InChIKey: JCCKUDBCTLAHGQ-UHFFFAOYSA-N
Synon: 4-Methoxy Fu-F
Synon: p-Methoxy Fu-F
Synon: 4-Methoxy Furanyl fentanyl
Synon: p-Methoxy Furanyl fentanyl
Synon: N-(4-methoxyphenyl)-N-(1-phenethylpiperidin-4-yl)furan-2-carboxamide
Formula: C25H28N2O3
MW: 404
ExactMass: 404.209993
DB#: 4857
Comments: Provided by www.caymanchem.com/app/template/landing%2CForensic.vm / Item#23197 Batch#0514228
Num Peaks: 154
41 45; 42 146; 43 18; 44 38; 45 2; 
50 7; 51 24; 52 11; 53 18; 54 15; 
55 34; 56 18; 57 9; 58 2; 62 5; 
63 18; 64 16; 65 54; 66 6; 67 44; 
68 39; 69 36; 70 69; 71 5; 73 21; 
74 5; 75 6; 76 8; 77 96; 78 49; 
79 73; 80 28; 81 22; 82 29; 83 4; 
84 2; 89 14; 90 12; 91 216; 92 45; 
93 15; 94 37; 95 999; 96 294; 97 39; 
98 41; 99 2; 102 12; 103 64; 104 55; 
105 211; 106 27; 107 22; 108 7; 109 5; 
115 9; 116 4; 117 19; 118 6; 119 6; 
120 10; 121 18; 122 40; 123 13; 124 17; 
126 3; 128 4; 129 2; 130 12; 131 5; 
132 25; 133 15; 134 54; 135 19; 136 7; 
137 21; 138 6; 139 17; 140 2; 143 3; 
144 9; 145 6; 146 24; 147 15; 148 21; 
149 20; 150 2; 154 2; 156 4; 157 7; 
158 9; 159 7; 160 80; 161 32; 162 35; 
163 7; 164 2; 172 3; 174 14; 175 5; 
176 12; 177 5; 179 2; 182 3; 183 2; 
184 23; 185 9; 186 51; 187 9; 188 216; 
189 22; 190 4; 191 5; 192 2; 193 3; 
195 2; 197 3; 200 61; 201 22; 202 8; 
203 4; 207 28; 208 6; 209 5; 217 85; 
218 15; 219 8; 239 2; 240 11; 242 47; 
243 8; 253 12; 254 4; 255 3; 267 3; 
268 2; 270 431; 271 77; 272 9; 281 12; 
282 4; 283 2; 309 10; 310 4; 313 820; 
314 167; 315 23; 316 2; 325 2; 327 4; 
328 2; 331 2; 341 4; 402 2; 

