Name: para-Chloro Valeryl fentanyl
InChIKey: FCGXDEMTTPNXQP-UHFFFAOYSA-N
Synon: 4-Chloro Valeryl fentanyl
Synon: p-Chloro Valeryl fentanyl
Synon: N-(4-chlorophenyl)-N-(1-phenethylpiperidin-4-yl)pentanamide
Formula: C24H31ClN2O
MW: 398
ExactMass: 398.212492
DB#: 4860
Comments: Provided by www.caymanchem.com/app/template/landing%2CForensic.vm / Item#23058 Batch#0513961
Num Peaks: 176
41 181; 42 191; 43 40; 44 140; 45 5; 
50 11; 51 19; 52 11; 53 15; 54 17; 
55 70; 56 37; 57 334; 58 19; 61 2; 
62 6; 63 22; 64 10; 65 59; 66 7; 
67 35; 68 47; 69 52; 70 89; 71 8; 
72 2; 73 21; 74 7; 75 32; 76 13; 
77 79; 78 35; 79 73; 80 18; 81 9; 
82 40; 83 15; 84 21; 85 171; 86 10; 
87 3; 89 19; 90 22; 91 279; 92 37; 
93 15; 94 29; 95 26; 96 211; 97 37; 
98 11; 99 21; 100 6; 101 10; 102 13; 
103 68; 104 53; 105 287; 106 27; 107 4; 
108 2; 110 3; 111 66; 112 11; 113 23; 
114 4; 115 11; 116 8; 117 31; 118 12; 
119 6; 120 2; 125 25; 126 22; 127 227; 
128 31; 129 76; 130 89; 131 28; 132 29; 
133 6; 134 11; 135 6; 137 5; 138 44; 
139 45; 140 30; 141 9; 142 6; 143 6; 
144 28; 145 24; 146 12; 147 4; 148 2; 
149 2; 151 8; 152 37; 153 40; 154 28; 
155 14; 156 9; 157 4; 158 7; 159 5; 
160 23; 161 3; 164 27; 165 34; 166 63; 
167 21; 168 23; 169 13; 170 4; 171 4; 
172 2; 177 2; 178 6; 179 10; 180 417; 
181 52; 182 141; 183 18; 184 22; 185 16; 
186 36; 187 13; 188 51; 189 9; 191 7; 
192 17; 193 12; 194 15; 195 8; 196 3; 
197 2; 206 2; 207 17; 208 5; 209 3; 
211 23; 212 5; 213 8; 221 16; 222 15; 
223 436; 224 65; 225 139; 226 20; 227 2; 
229 2; 231 3; 253 8; 254 2; 264 27; 
265 6; 266 10; 267 4; 272 7; 273 5; 
278 4; 281 6; 305 3; 307 999; 308 197; 
309 334; 310 60; 311 7; 313 3; 315 2; 
327 3; 331 3; 341 3; 355 2; 396 5; 
398 2; 

