Name: para-Chlorobutyryl fentanyl
InChIKey: YRAMWTYYYLTADR-UHFFFAOYSA-N
Synon: N-(4-chlorophenyl)-N-[1-(2-phenylethyl)-4-piperidinyl]-butanamide
Synon: 4-Chlorobutyryl fentanyl
Synon: p-Chlorobutyryl fentanyl
Formula: C23H29ClN2O
MW: 384
ExactMass: 384.19684
DB#: 4861
Comments: Provided by www.caymanchem.com/app/template/landing%2CForensic.vm / Item#23015 Batch#0512747
Num Peaks: 174
41 138; 42 200; 43 338; 44 152; 45 3; 
50 12; 51 21; 52 9; 53 12; 54 16; 
55 44; 56 29; 57 21; 58 3; 61 2; 
62 7; 63 19; 64 9; 65 62; 66 6; 
67 33; 68 47; 69 56; 70 89; 71 249; 
72 13; 73 25; 74 9; 75 33; 76 14; 
77 86; 78 41; 79 78; 80 15; 81 8; 
82 35; 83 8; 84 12; 85 4; 89 19; 
90 21; 91 285; 92 35; 93 10; 94 26; 
95 24; 96 202; 97 32; 98 23; 99 9; 
100 3; 101 3; 102 14; 103 76; 104 61; 
105 273; 106 27; 107 3; 108 2; 110 2; 
111 68; 112 4; 113 24; 114 2; 115 9; 
116 8; 117 32; 118 7; 119 4; 120 2; 
125 20; 126 14; 127 135; 128 22; 129 48; 
130 88; 131 30; 132 29; 133 7; 134 9; 
135 9; 137 4; 138 46; 139 40; 140 29; 
141 8; 142 7; 143 7; 144 30; 145 15; 
146 10; 147 4; 148 4; 149 2; 151 4; 
152 39; 153 33; 154 20; 155 10; 156 8; 
157 3; 158 7; 159 2; 160 16; 161 2; 
163 3; 164 26; 165 24; 166 61; 167 19; 
168 22; 169 4; 170 2; 177 2; 178 7; 
179 5; 180 418; 181 50; 182 142; 183 17; 
184 15; 185 10; 186 35; 187 6; 188 38; 
189 5; 191 5; 192 13; 193 11; 194 13; 
195 5; 196 3; 197 21; 198 3; 199 4; 
207 23; 208 7; 209 5; 221 14; 222 9; 
223 420; 224 61; 225 134; 226 19; 231 2; 
250 41; 251 8; 252 10; 253 14; 254 4; 
258 8; 259 3; 264 3; 265 2; 267 2; 
269 2; 275 2; 277 3; 281 9; 282 3; 
283 3; 291 3; 293 999; 294 181; 295 335; 
296 48; 297 7; 313 3; 315 2; 327 4; 
331 3; 341 5; 346 2; 382 5; 

