Name: para-Chloro Acrylfentanyl
InChIKey: CSFZVPAQJHDOCD-UHFFFAOYSA-N
Synon: 4-Chloro Acryloylfentanyl
Synon: p-Chloro Acryloylfentanyl
Synon: 4-Chloro Acrylfentanyl
Synon: p-Chloro Acrylfentanyl
Synon: N-(4-chlorophenyl)-N-(1-phenethylpiperidin-4-yl)acrylamide
Formula: C22H25ClN2O
MW: 368
ExactMass: 368.16554
DB#: 4878
Comments: Provided by www.caymanchem.com/app/template/landing%2CForensic.vm / Item#23338 Batch#0515411
Num Peaks: 182
40 2; 41 58; 42 229; 43 37; 44 131; 
45 5; 50 19; 51 33; 52 17; 53 19; 
54 24; 55 549; 56 54; 57 13; 58 4; 
59 3; 61 5; 62 11; 63 36; 64 13; 
65 91; 66 10; 67 40; 68 46; 69 49; 
70 68; 71 7; 72 3; 73 37; 74 14; 
75 52; 76 20; 77 115; 78 52; 79 96; 
80 22; 81 10; 82 36; 83 7; 84 17; 
85 4; 86 4; 87 4; 88 2; 89 31; 
90 29; 91 344; 92 40; 93 11; 94 30; 
95 11; 96 229; 97 29; 98 32; 99 27; 
100 6; 101 5; 102 21; 103 91; 104 71; 
105 238; 106 22; 108 2; 110 4; 111 79; 
112 5; 113 26; 114 4; 115 12; 116 11; 
117 33; 118 6; 119 5; 124 2; 125 12; 
126 6; 127 122; 128 21; 129 44; 130 85; 
131 29; 132 27; 133 6; 134 8; 135 10; 
136 2; 137 9; 138 54; 139 42; 140 32; 
141 7; 142 7; 143 9; 144 25; 145 16; 
146 14; 147 9; 148 8; 149 3; 150 2; 
151 8; 152 30; 153 23; 154 11; 155 8; 
156 9; 157 6; 158 9; 159 2; 160 17; 
161 4; 163 2; 164 52; 165 31; 166 71; 
167 19; 168 19; 169 4; 170 4; 171 2; 
177 3; 178 6; 179 8; 180 279; 181 72; 
182 103; 183 25; 184 23; 185 9; 186 31; 
187 18; 188 16; 189 2; 190 2; 191 4; 
192 100; 193 20; 194 39; 195 9; 196 2; 
197 2; 198 3; 199 8; 206 6; 207 24; 
208 7; 209 5; 210 2; 221 16; 222 17; 
223 151; 224 27; 225 46; 226 7; 234 356; 
235 54; 236 114; 237 15; 242 7; 248 4; 
249 2; 251 2; 253 14; 254 2; 255 2; 
265 3; 267 2; 269 2; 277 999; 278 174; 
279 335; 280 56; 281 16; 283 2; 313 3; 
315 3; 325 3; 327 6; 331 2; 341 4; 
343 3; 355 2; 

