Name: para-Chloro Cyclopentyl fentanyl
InChIKey: SJMSXMAHJSSXOR-UHFFFAOYSA-N
Synon: 4-Chloro Cyclopentanoyl fentanyl
Synon: para-Chloro Cyclopentanoyl
Synon: p-Chloro Cyclopentanoyl fentanyl
Synon: 4-Chloro Cyclopentyl fentanyl
Synon: p-Chloro Cyclopentyl fentanyl
Synon: N-(4-chlorophenyl)-N-(1-phenethylpiperidin-4-yl)cyclopentanecarboxamide
Formula: C25H31ClN2O
MW: 410
ExactMass: 410.212492
DB#: 4876
Comments: Provided by www.caymanchem.com/app/template/landing%2CForensic.vm / Item#23341 Batch#0515414
Num Peaks: 177
41 232; 42 138; 43 20; 44 74; 45 4; 
50 12; 51 18; 52 9; 53 20; 54 8; 
55 57; 56 25; 57 18; 58 2; 59 3; 
61 4; 62 7; 63 20; 64 8; 65 59; 
66 12; 67 84; 68 53; 69 999; 70 122; 
71 9; 72 2; 73 33; 74 9; 75 28; 
76 11; 77 71; 78 37; 79 65; 80 17; 
81 9; 82 30; 83 6; 84 18; 85 3; 
87 2; 89 15; 90 18; 91 200; 92 29; 
93 14; 94 27; 95 25; 96 187; 97 151; 
98 32; 99 18; 100 3; 101 4; 102 12; 
103 61; 104 53; 105 230; 106 21; 107 2; 
108 2; 110 2; 111 51; 112 7; 113 18; 
114 2; 115 11; 116 7; 117 16; 118 10; 
119 3; 120 2; 125 14; 126 11; 127 146; 
128 23; 129 40; 130 73; 131 16; 132 17; 
133 7; 134 8; 135 13; 137 4; 138 42; 
139 31; 140 20; 141 5; 142 4; 143 9; 
144 12; 145 8; 146 9; 147 7; 148 3; 
151 4; 152 25; 153 22; 154 16; 155 6; 
156 7; 157 2; 158 5; 159 4; 160 17; 
161 3; 163 2; 164 21; 165 32; 166 44; 
167 17; 168 16; 169 3; 170 3; 177 5; 
178 5; 179 9; 180 199; 181 27; 182 73; 
183 4; 184 13; 185 8; 186 29; 187 7; 
188 41; 189 3; 190 2; 191 5; 192 8; 
193 11; 194 3; 195 5; 197 4; 205 4; 
206 2; 207 29; 208 8; 209 7; 221 15; 
222 4; 223 374; 224 53; 225 121; 226 17; 
231 2; 234 2; 253 16; 254 2; 255 2; 
265 2; 267 2; 269 3; 276 7; 277 3; 
278 2; 281 10; 282 2; 283 4; 284 3; 
285 3; 313 2; 315 2; 317 2; 319 619; 
320 129; 321 203; 322 40; 323 3; 325 2; 
327 6; 329 2; 331 3; 341 6; 343 5; 
355 2; 405 2; 

