Name: para-Chloro Cyclobutyl fentanyl
InChIKey: BCYKSTXBLMALSD-UHFFFAOYSA-N
Synon: 4-Chloro Cyclobutyl fentanyl
Synon: p-Chloro Cyclobutyl fentanyl
Synon: N-(4-chlorophenyl)-N-(1-phenethylpiperidin-4-yl)cyclobutanecarboxamide
Formula: C24H29ClN2O
MW: 396
ExactMass: 396.19684
DB#: 4877
Comments: Provided by www.caymanchem.com/app/template/landing%2CForensic.vm / Item#23339 Batch#0515415
Num Peaks: 185
40 2; 41 53; 42 185; 43 35; 44 89; 
45 3; 49 2; 50 15; 51 28; 52 14; 
53 54; 54 30; 55 900; 56 74; 57 19; 
58 5; 61 3; 62 8; 63 25; 64 9; 
65 66; 66 8; 67 36; 68 51; 69 52; 
70 92; 71 10; 72 2; 73 23; 74 9; 
75 37; 76 15; 77 95; 78 42; 79 92; 
80 21; 81 15; 82 42; 83 199; 84 30; 
85 6; 87 2; 89 24; 90 23; 91 306; 
92 35; 93 13; 94 33; 95 25; 96 231; 
97 34; 98 19; 99 20; 100 2; 101 9; 
102 15; 103 80; 104 60; 105 307; 106 28; 
107 4; 108 3; 110 3; 111 74; 112 10; 
113 24; 114 3; 115 13; 116 8; 117 32; 
118 12; 119 5; 125 17; 126 16; 127 146; 
128 23; 129 51; 130 95; 131 31; 132 32; 
133 7; 134 9; 135 5; 136 2; 137 7; 
138 56; 139 35; 140 35; 141 5; 142 7; 
143 4; 144 24; 145 17; 146 11; 147 5; 
148 4; 149 2; 151 10; 152 33; 153 25; 
154 20; 155 9; 156 9; 157 4; 158 11; 
159 4; 160 26; 161 3; 163 3; 164 33; 
165 41; 166 64; 167 23; 168 12; 169 4; 
170 3; 177 2; 178 10; 179 11; 180 323; 
181 43; 182 111; 183 15; 184 24; 185 18; 
186 40; 187 14; 188 44; 189 7; 190 3; 
191 5; 192 28; 193 12; 194 15; 195 8; 
196 2; 197 3; 206 3; 207 16; 208 5; 
209 26; 210 6; 211 8; 221 19; 222 13; 
223 552; 224 82; 225 175; 226 26; 227 3; 
231 2; 234 21; 235 3; 236 7; 241 2; 
249 2; 253 11; 254 3; 262 27; 263 5; 
264 9; 265 2; 267 4; 269 2; 270 7; 
271 4; 276 3; 277 16; 278 4; 279 8; 
281 5; 303 2; 305 999; 306 208; 307 348; 
308 62; 309 6; 313 4; 315 2; 325 2; 
327 3; 331 3; 341 3; 355 2; 394 3; 

