Name: para-Chloro Methoxyacetyl fentanyl
InChIKey: SKFHINXGRSUWIJ-UHFFFAOYSA-N
Synon: 4-Chloro Methoxyacetyl fentanyl
Synon: p-Chloro Methoxyacetyl fentanyl
Synon: N-(4-chlorophenyl)-2-methoxy-N-[1-(2-phenylethyl)-4-piperidinyl]-acetamide
Formula: C22H27ClN2O2
MW: 386
ExactMass: 386.176105
CAS#: 101345-75-9
DB#: 4874
Comments: Provided by www.caymanchem.com/app/template/landing%2CForensic.vm / Item#23343 Batch#0515142
Num Peaks: 201
41 61; 42 212; 43 40; 44 88; 45 665; 
46 8; 47 3; 49 3; 50 22; 51 39; 
52 20; 53 19; 54 20; 55 46; 56 23; 
57 19; 58 42; 59 3; 60 2; 61 4; 
62 18; 63 45; 64 9; 65 56; 66 11; 
67 38; 68 50; 69 28; 70 120; 71 11; 
72 5; 73 66; 74 16; 75 67; 76 23; 
77 124; 78 42; 79 99; 80 26; 81 12; 
82 41; 83 7; 84 10; 85 7; 86 2; 
87 5; 88 5; 89 30; 90 38; 91 350; 
92 45; 93 13; 94 33; 95 17; 96 303; 
97 41; 98 38; 99 60; 100 28; 101 22; 
102 17; 103 92; 104 53; 105 299; 106 32; 
107 3; 108 3; 110 2; 111 89; 112 11; 
113 27; 114 6; 115 8; 116 12; 117 26; 
118 6; 119 7; 120 2; 123 2; 124 2; 
125 34; 126 67; 127 58; 128 23; 129 13; 
130 78; 131 28; 132 28; 133 14; 134 11; 
135 14; 136 2; 137 4; 138 57; 139 54; 
140 180; 141 37; 142 53; 143 11; 144 16; 
145 8; 146 8; 147 8; 148 5; 149 4; 
151 8; 152 30; 153 46; 154 35; 155 17; 
156 9; 157 7; 158 8; 159 2; 160 21; 
161 3; 163 2; 164 27; 165 24; 166 86; 
167 21; 168 36; 169 60; 170 15; 171 16; 
172 5; 176 2; 177 3; 178 7; 179 4; 
180 38; 181 5; 182 20; 183 6; 184 15; 
185 16; 186 39; 187 26; 188 39; 189 3; 
191 9; 192 185; 193 36; 194 74; 195 17; 
196 7; 197 4; 198 2; 199 90; 200 7; 
201 31; 206 4; 207 41; 208 11; 209 12; 
211 2; 217 5; 218 2; 220 6; 221 18; 
222 17; 223 27; 224 97; 225 16; 226 30; 
227 4; 231 2; 235 14; 236 2; 237 5; 
238 2; 249 3; 250 2; 251 3; 252 202; 
253 52; 254 71; 255 13; 256 2; 260 6; 
261 2; 263 3; 265 8; 266 2; 267 5; 
269 3; 281 15; 282 5; 283 3; 295 999; 
296 169; 297 329; 298 55; 299 5; 325 3; 
327 5; 331 4; 341 8; 342 3; 346 2; 
384 3; 

