Name: para-Chloro Cyclopropyl fentanyl
InChIKey: IPGLBSCVAGTNBX-UHFFFAOYSA-N
Synon: 4-Chloro Cyclopropyl fentanyl
Synon: p-Chloro Cyclopropyl fentanyl
Synon: N-(4-chlorophenyl)-N-(1-phenethylpiperidin-4-yl)cyclopropanecarboxamide
Formula: C23H27ClN2O
MW: 382
ExactMass: 382.18119
DB#: 4875
Comments: Provided by www.caymanchem.com/app/template/landing%2CForensic.vm / Item#23342 Batch#0515413
Num Peaks: 190
40 2; 41 401; 42 218; 43 38; 44 99; 
45 4; 49 3; 50 19; 51 33; 52 19; 
53 18; 54 20; 55 50; 56 33; 57 23; 
58 4; 59 2; 61 6; 62 12; 63 41; 
64 20; 65 83; 66 10; 67 37; 68 62; 
69 999; 70 119; 71 7; 72 2; 73 49; 
74 16; 75 53; 76 20; 77 114; 78 55; 
79 103; 80 24; 81 10; 82 38; 83 10; 
84 17; 85 5; 86 2; 87 5; 88 3; 
89 29; 90 30; 91 330; 92 43; 93 11; 
94 28; 95 22; 96 255; 97 30; 98 27; 
99 42; 100 9; 101 12; 102 20; 103 93; 
104 82; 105 277; 106 28; 107 2; 108 3; 
110 4; 111 81; 112 14; 113 27; 114 3; 
115 20; 116 11; 117 36; 118 8; 119 6; 
120 3; 125 20; 126 18; 127 248; 128 30; 
129 82; 130 95; 131 24; 132 24; 133 10; 
134 11; 135 12; 136 3; 137 7; 138 52; 
139 24; 140 32; 141 7; 142 8; 143 10; 
144 27; 145 13; 146 11; 147 8; 148 3; 
149 2; 150 2; 151 11; 152 32; 153 22; 
154 8; 155 8; 156 7; 157 4; 158 10; 
159 4; 160 19; 163 2; 164 28; 165 32; 
166 60; 167 18; 168 19; 169 4; 170 3; 
177 4; 178 15; 179 13; 180 328; 181 43; 
182 106; 183 15; 184 21; 185 17; 186 37; 
187 22; 188 32; 189 6; 191 7; 192 39; 
193 16; 194 17; 195 60; 196 10; 197 20; 
198 4; 205 2; 206 2; 207 35; 208 11; 
209 6; 213 2; 221 16; 222 9; 223 530; 
224 76; 225 171; 226 23; 227 2; 239 2; 
248 70; 249 12; 250 18; 251 6; 253 20; 
254 5; 255 3; 256 5; 257 2; 262 4; 
263 2; 264 2; 265 3; 267 3; 269 2; 
281 15; 282 3; 283 2; 289 2; 291 955; 
292 175; 293 318; 294 53; 295 4; 311 2; 
313 3; 315 2; 327 6; 328 2; 331 6; 
341 5; 342 2; 343 2; 346 2; 382 2; 

