Name: para-Methoxy Valeryl fentanyl
InChIKey: SVNODVBERPGABW-UHFFFAOYSA-N
Synon: 4-Methoxy Valeryl fentanyl
Synon: p-Methoxy Valeryl fentanyl
Synon: N-(4-methoxyphenyl)-N-(1-phenethylpiperidin-4-yl)pentanamide
Formula: C25H34N2O2
MW: 394
ExactMass: 394.262028
DB#: 4872
Comments: Provided by www.caymanchem.com/app/template/landing%2CForensic.vm / Item#23471 Batch#0515717
Num Peaks: 186
40 3; 41 165; 42 167; 43 19; 44 71; 
45 4; 49 3; 50 15; 51 35; 52 27; 
53 20; 54 11; 55 45; 56 35; 57 248; 
58 11; 59 5; 61 2; 62 6; 63 25; 
64 18; 65 70; 66 14; 67 38; 68 46; 
69 48; 70 122; 71 10; 72 2; 73 44; 
74 11; 75 10; 76 14; 77 129; 78 73; 
79 103; 80 52; 81 8; 82 42; 83 10; 
84 16; 85 80; 86 8; 87 3; 89 14; 
90 17; 91 269; 92 65; 93 24; 94 48; 
95 22; 96 328; 97 42; 98 26; 99 2; 
102 10; 103 83; 104 85; 105 313; 106 42; 
107 36; 108 150; 109 12; 110 2; 111 2; 
115 6; 116 8; 117 18; 118 10; 119 13; 
120 17; 121 51; 122 51; 123 176; 124 32; 
125 2; 128 6; 129 3; 130 26; 131 20; 
132 37; 133 29; 134 106; 135 42; 136 33; 
137 4; 139 19; 142 2; 143 4; 144 20; 
145 25; 146 42; 147 26; 148 55; 149 66; 
150 12; 151 3; 152 3; 153 2; 154 3; 
155 2; 156 5; 157 3; 158 8; 159 5; 
160 88; 161 47; 162 74; 163 12; 164 6; 
165 6; 167 2; 172 2; 173 2; 174 11; 
175 12; 176 826; 177 106; 178 12; 179 6; 
181 2; 182 7; 183 5; 184 29; 185 22; 
186 37; 187 24; 188 104; 189 22; 190 8; 
191 10; 192 3; 193 8; 195 3; 197 9; 
198 2; 200 2; 202 3; 203 5; 204 3; 
205 2; 207 91; 208 19; 209 8; 217 8; 
218 25; 219 575; 220 86; 221 6; 222 2; 
223 4; 230 2; 237 2; 239 2; 243 2; 
249 4; 253 29; 254 7; 255 6; 260 66; 
261 5; 267 4; 268 3; 269 3; 270 2; 
274 2; 281 14; 282 15; 283 2; 301 5; 
303 999; 304 200; 305 23; 315 3; 325 2; 
327 9; 328 3; 329 3; 331 6; 332 2; 
341 8; 343 2; 346 3; 355 3; 392 3; 
393 2; 

