Name: para-Chloro Furanyl fentanyl 3-furancarboxamide
InChIKey: YMMQGNSZCFXVKM-UHFFFAOYSA-N
Synon: p-Chloro Fu-F 3-furancarboxamide
Synon: 4-Chloro Fu-F 3-furancarboxamide
Synon: p-Chloro Furanyl fentanyl 3-furancarboxamide
Synon: 4-Chloro Furanyl fentanyl 3-furancarboxamide
Synon: N-(4-chlorophenyl)-N-(1-phenethylpiperidin-4-yl)furan-3-carboxamide
Formula: C24H25ClN2O2
MW: 408
ExactMass: 408.160456
DB#: 4889
Comments: Provided by www.caymanchem.com/app/template/landing%2CForensic.vm / Item#22843 Batch#0512800
Num Peaks: 171
40 6; 41 32; 42 121; 43 20; 44 38; 
45 2; 50 7; 51 21; 52 10; 53 9; 
54 11; 55 23; 56 14; 57 11; 59 4; 
61 2; 62 5; 63 11; 64 3; 65 38; 
66 8; 67 37; 68 25; 69 25; 70 30; 
71 4; 73 32; 74 8; 75 21; 76 9; 
77 54; 78 32; 79 46; 80 13; 81 8; 
82 18; 83 4; 84 4; 85 3; 87 3; 
89 12; 90 10; 91 138; 92 12; 93 7; 
94 20; 95 999; 96 190; 97 21; 98 50; 
99 10; 101 4; 102 11; 103 48; 104 46; 
105 115; 106 12; 107 3; 111 32; 112 5; 
113 8; 114 2; 115 5; 116 4; 117 7; 
118 5; 119 6; 125 3; 126 6; 127 8; 
128 6; 129 6; 130 35; 131 7; 132 11; 
133 6; 134 4; 135 5; 136 2; 137 2; 
138 19; 139 8; 140 8; 141 2; 142 3; 
143 3; 144 6; 145 3; 146 5; 147 7; 
148 6; 149 4; 151 4; 152 10; 153 7; 
154 8; 155 3; 156 2; 157 2; 158 4; 
160 6; 161 3; 163 2; 164 11; 165 15; 
166 18; 167 7; 168 4; 169 2; 170 4; 
176 2; 177 3; 178 4; 179 4; 180 5; 
181 3; 182 3; 184 12; 185 11; 186 14; 
187 10; 188 5; 191 7; 192 37; 193 11; 
194 11; 195 4; 197 2; 204 18; 205 6; 
206 8; 207 44; 208 9; 209 7; 221 22; 
222 11; 223 15; 224 4; 225 2; 239 3; 
251 2; 253 17; 254 2; 266 2; 267 3; 
269 3; 274 133; 275 22; 276 29; 277 3; 
281 14; 282 6; 283 4; 311 2; 315 2; 
317 366; 318 69; 319 123; 320 21; 321 2; 
327 5; 328 2; 331 7; 332 2; 341 5; 
342 2; 343 3; 346 2; 355 3; 405 4; 
406 2; 

