Name: ortho-Methoxy-Butyryl fentanyl
InChIKey: RWKPKWZAKCWONI-UHFFFAOYSA-N
Synon: N-(2-methoxyphenyl)-N-(1-phenethylpiperidin-4-yl)butyramide
Synon: 2-MeO Butyryl fentanyl
Synon: 2-Methoxy Butyryl fentanyl
Synon: o-MeO Butyryl fentanyl
Synon: o-Methoxy Butyryl fentanyl
Formula: C24H32N2O2
MW: 380
ExactMass: 380.246378
DB#: 4888
Comments: Provided by www.caymanchem.com/app/template/landing%2CForensic.vm / Item#22035 Batch#0512792
Num Peaks: 236
40 8; 41 128; 42 202; 43 275; 44 119; 
45 6; 46 2; 47 2; 48 2; 49 3; 
50 22; 51 39; 52 30; 53 12; 54 21; 
55 52; 56 31; 57 16; 58 4; 59 6; 
60 2; 61 3; 62 9; 63 26; 64 16; 
65 87; 66 13; 67 39; 68 43; 69 54; 
70 91; 71 174; 72 12; 73 119; 74 17; 
75 22; 76 15; 77 143; 78 84; 79 104; 
80 52; 81 16; 82 39; 83 9; 84 12; 
85 4; 86 2; 87 5; 88 2; 89 24; 
90 14; 91 295; 92 73; 93 31; 94 52; 
95 32; 96 307; 97 42; 98 27; 99 3; 
101 4; 102 12; 103 90; 104 94; 105 311; 
106 58; 107 19; 108 118; 109 12; 110 4; 
111 2; 112 3; 113 3; 115 19; 116 6; 
117 33; 118 18; 119 26; 120 59; 121 22; 
122 10; 123 146; 124 27; 125 4; 127 3; 
128 6; 129 8; 130 46; 131 26; 132 40; 
133 71; 134 79; 135 57; 136 14; 137 3; 
139 21; 140 2; 141 2; 143 7; 144 33; 
145 21; 146 47; 147 44; 148 53; 149 31; 
150 15; 151 2; 152 3; 153 4; 154 7; 
155 2; 156 12; 157 7; 158 7; 159 7; 
160 56; 161 71; 162 82; 163 22; 164 4; 
165 4; 166 2; 167 3; 168 2; 170 2; 
171 3; 172 3; 173 3; 174 7; 175 11; 
176 911; 177 135; 178 20; 179 11; 180 3; 
181 2; 182 2; 183 2; 184 26; 185 20; 
186 47; 187 21; 188 96; 189 23; 190 5; 
191 51; 192 13; 193 73; 194 10; 195 16; 
196 3; 197 5; 198 3; 202 4; 203 7; 
204 3; 205 5; 206 2; 207 410; 208 88; 
209 56; 210 5; 211 4; 214 3; 217 15; 
218 17; 219 644; 220 100; 221 12; 222 2; 
223 3; 228 2; 229 3; 232 2; 235 2; 
238 2; 239 4; 241 2; 246 67; 247 13; 
249 13; 250 3; 251 5; 252 2; 253 54; 
254 15; 255 7; 256 2; 257 2; 260 5; 
261 2; 263 2; 265 11; 266 2; 267 13; 
268 6; 269 7; 270 3; 271 2; 273 2; 
281 115; 282 34; 283 21; 284 4; 285 2; 
287 3; 289 999; 290 188; 291 24; 295 2; 
297 2; 309 2; 311 2; 313 2; 315 3; 
325 8; 327 19; 328 4; 329 3; 330 2; 
331 16; 332 5; 333 3; 341 27; 342 6; 
343 9; 344 2; 346 7; 347 2; 355 7; 
356 4; 357 2; 358 2; 377 2; 378 4; 
379 2; 

