Name: ortho-Methyl Methoxyacetyl fentanyl
InChIKey: JJNJJOPCUJRZRG-UHFFFAOYSA-N
Synon: 2-Methyl Methoxyacetyl fentanyl
Synon: o-Methyl Methoxyacetyl fentanyl
Synon: Methoxyacetyl fentanyl
Synon: 2-Methoxy-N-(1-phenethylpiperidin-4-yl)-N-(o-tolyl)acetamide
Formula: C23H30N2O2
MW: 366
ExactMass: 366.230728
DB#: 4887
Comments: Provided by www.caymanchem.com/app/template/landing%2CForensic.vm / Item#22977 Batch#0513077
Num Peaks: 147
40 2; 41 40; 42 140; 43 23; 44 49; 
45 359; 46 7; 50 8; 51 16; 52 11; 
53 13; 54 11; 55 35; 56 22; 57 11; 
58 18; 62 4; 63 16; 64 4; 65 83; 
66 9; 67 28; 68 29; 69 35; 70 75; 
71 8; 73 14; 74 3; 75 6; 76 7; 
77 99; 78 45; 79 71; 80 18; 81 7; 
82 32; 83 5; 84 9; 85 2; 88 5; 
89 25; 90 17; 91 342; 92 34; 93 10; 
94 24; 95 29; 96 193; 97 35; 98 13; 
100 7; 101 2; 102 10; 103 55; 104 76; 
105 255; 106 81; 107 27; 108 4; 115 13; 
116 9; 117 37; 118 87; 119 20; 120 70; 
121 5; 123 2; 128 9; 129 6; 130 51; 
131 29; 132 59; 133 28; 134 44; 135 5; 
139 22; 140 2; 142 2; 143 9; 144 61; 
145 28; 146 57; 147 13; 148 4; 149 16; 
150 4; 156 6; 157 4; 158 19; 159 8; 
160 80; 161 8; 162 7; 165 2; 167 2; 
170 2; 171 3; 172 285; 173 45; 174 23; 
175 4; 176 3; 177 2; 179 50; 180 8; 
182 3; 184 16; 185 14; 186 38; 187 15; 
188 21; 189 6; 190 2; 191 2; 193 3; 
195 2; 200 5; 201 6; 202 9; 203 23; 
204 201; 205 29; 206 2; 207 20; 208 4; 
209 3; 215 14; 216 4; 229 3; 232 334; 
233 49; 234 5; 245 5; 246 2; 247 4; 
253 9; 254 2; 269 2; 275 999; 276 178; 
277 19; 281 8; 282 2; 327 4; 331 2; 
341 3; 364 2; 

