Name: ortho-Methoxy Furanyl fentanyl
InChIKey: DCDCWVRDPIOMBB-UHFFFAOYSA-N
Synon: 2-Methoxy Fu-F
Synon: o-Methoxy Fu-F
Synon: ortho-Methoxy Fu-F
Synon: 2-Methoxy Furanyl fentanyl
Synon: o-Methoxy Furanyl fentanyl
Synon: N-(2-Methoxyphenyl)-N-[1-(2-phenylethyl)-4-piperidinyl]-2-furancarboxamide
Formula: C25H28N2O3
MW: 404
ExactMass: 404.209993
CAS#: 101343-50-4
DB#: 4896
Comments: Provided by www.caymanchem.com/app/template/landing%2CForensic.vm / Item# 22805 Batch#0510566
Num Peaks: 162
40 4; 41 47; 42 169; 43 20; 44 40; 
45 2; 50 10; 51 29; 52 20; 53 18; 
54 15; 55 36; 56 20; 57 11; 58 2; 
62 4; 63 17; 64 12; 65 68; 66 12; 
67 50; 68 38; 69 36; 70 44; 71 6; 
73 15; 74 5; 75 5; 76 8; 77 100; 
78 46; 79 74; 80 24; 81 28; 82 31; 
83 6; 84 7; 85 2; 89 13; 90 11; 
91 207; 92 48; 93 23; 94 42; 95 999; 
96 313; 97 34; 98 34; 99 3; 102 10; 
103 58; 104 54; 105 208; 106 35; 107 12; 
108 31; 109 4; 110 6; 111 3; 115 11; 
116 7; 117 20; 118 11; 119 11; 120 32; 
121 17; 122 16; 123 8; 124 6; 127 2; 
128 5; 129 4; 130 34; 131 17; 132 25; 
133 16; 134 40; 135 17; 136 6; 137 12; 
138 7; 139 15; 141 2; 142 2; 143 5; 
144 14; 145 10; 146 29; 147 15; 148 30; 
149 9; 150 3; 154 3; 156 4; 157 8; 
158 9; 159 3; 160 64; 161 36; 162 37; 
163 6; 164 3; 170 3; 172 5; 173 3; 
174 17; 175 6; 176 12; 177 3; 179 2; 
182 2; 184 19; 185 21; 186 52; 187 18; 
188 230; 189 36; 190 6; 191 3; 192 2; 
193 2; 197 2; 198 2; 199 2; 200 51; 
201 12; 202 6; 203 5; 207 21; 208 4; 
209 3; 210 2; 212 2; 217 67; 218 23; 
219 7; 228 2; 240 21; 241 4; 242 115; 
243 19; 244 3; 253 10; 254 3; 255 2; 
267 2; 270 428; 271 76; 272 9; 281 9; 
282 2; 309 8; 310 2; 313 735; 314 150; 
315 20; 316 2; 327 3; 331 3; 341 4; 
402 2; 405 2; 

