Name: para-Fluoro Valeryl fentanyl
InChIKey: LRGKRSJHHVAEAD-UHFFFAOYSA-N
Synon: 4-Fluoro Valeryl fentanyl
Synon: p-Fluoro Valeryl fentanyl
Synon: N-(4-fluorophenyl)-N-(1-phenethylpiperidin-4-yl)pentanamide
Formula: C24H31FN2O
MW: 382
ExactMass: 382.242043
DB#: 4890
Comments: Provided by www.caymanchem.com/app/template/landing%2CForensic.vm / Item#23085 Batch#0513083
Num Peaks: 150
40 5; 41 138; 42 157; 43 33; 44 115; 
45 4; 50 8; 51 15; 52 8; 53 12; 
54 14; 55 62; 56 31; 57 270; 58 15; 
62 4; 63 11; 64 4; 65 38; 66 5; 
67 27; 68 38; 69 39; 70 71; 71 6; 
73 9; 74 4; 75 19; 76 5; 77 55; 
78 26; 79 60; 80 16; 81 9; 82 36; 
83 35; 84 26; 85 113; 86 7; 89 11; 
90 7; 91 170; 92 20; 93 6; 94 28; 
95 93; 96 186; 97 30; 98 11; 101 3; 
102 6; 103 58; 104 42; 105 242; 106 22; 
107 6; 108 6; 109 42; 110 30; 111 179; 
112 22; 113 2; 115 6; 116 4; 117 12; 
118 4; 119 2; 120 2; 121 7; 122 60; 
123 21; 124 20; 125 2; 128 3; 129 2; 
130 21; 131 8; 132 12; 133 6; 134 13; 
135 26; 136 61; 137 37; 138 14; 139 21; 
141 2; 143 2; 144 6; 145 3; 146 6; 
147 5; 148 67; 149 57; 150 84; 151 15; 
152 7; 153 10; 154 2; 155 2; 156 2; 
158 4; 160 21; 161 5; 162 11; 163 11; 
164 556; 165 63; 166 9; 174 2; 175 2; 
176 22; 177 13; 178 12; 179 3; 182 3; 
184 15; 185 8; 186 31; 187 8; 188 37; 
189 6; 190 3; 191 5; 192 2; 193 2; 
195 15; 196 4; 205 17; 206 19; 207 438; 
208 60; 209 5; 218 2; 231 4; 248 34; 
249 6; 253 6; 254 2; 262 4; 273 2; 
281 4; 289 3; 291 999; 292 188; 293 19; 
297 3; 327 2; 341 2; 380 4; 381 2; 

