Name: para-Methyl Cyclopropyl fentanyl
InChIKey: HVDSXTDEYBCMRJ-UHFFFAOYSA-N
Synon: 4-Methyl Cyclopropyl fentanyl
Synon: p-Methyl Cyclopropyl fentanyl
Synon: N-(1-phenethylpiperidin-4-yl)-N-(p-tolyl)cyclopropanecarboxamide
Formula: C24H30N2O
MW: 362
ExactMass: 362.235813
DB#: 4891
Comments: Provided by www.caymanchem.com/app/template/landing%2CForensic.vm / Item#23045 Batch#0513471
Num Peaks: 125
40 11; 41 231; 42 148; 43 20; 44 48; 
45 2; 50 7; 51 19; 52 11; 53 12; 
54 13; 55 33; 56 22; 57 16; 58 3; 
62 3; 63 13; 64 5; 65 71; 66 7; 
67 25; 68 38; 69 433; 70 83; 71 7; 
73 5; 74 3; 75 3; 76 5; 77 83; 
78 35; 79 75; 80 17; 81 6; 82 27; 
83 6; 84 9; 89 20; 90 16; 91 286; 
92 29; 93 9; 94 24; 95 18; 96 175; 
97 23; 98 7; 101 2; 102 6; 103 56; 
104 48; 105 256; 106 69; 107 123; 108 20; 
109 2; 111 2; 112 2; 115 11; 116 8; 
117 32; 118 56; 119 22; 120 22; 121 2; 
128 5; 129 6; 130 56; 131 32; 132 79; 
133 26; 134 18; 135 4; 139 6; 142 3; 
143 8; 144 64; 145 54; 146 90; 147 15; 
148 5; 154 2; 156 5; 157 5; 158 25; 
159 14; 160 698; 161 85; 162 8; 170 3; 
171 3; 172 82; 173 19; 174 8; 175 26; 
176 7; 182 2; 184 16; 185 12; 186 40; 
187 12; 188 25; 189 4; 200 2; 201 17; 
202 25; 203 551; 204 79; 205 6; 207 4; 
214 2; 228 121; 229 21; 230 2; 242 4; 
243 2; 253 4; 269 2; 271 999; 272 193; 
273 20; 281 2; 293 2; 360 4; 361 2; 

