Name: para-Methyl Furanyl fentanyl
InChIKey: KPCWABTXRUWDSW-UHFFFAOYSA-N
Synon: 4-Methyl Fu-F
Synon: p-Methyl Fu-F
Synon: para-Methyl Fu-F
Synon: 4-Methyl Furanyl fentanyl
Synon: p-Methyl Furanyl fentanyl
Synon: N-(1-phenethylpiperidin-4-yl)-N-(p-tolyl)furan-2-carboxamide
Formula: C25H28N2O2
MW: 388
ExactMass: 388.215078
DB#: 4905
Comments: Provided by www.caymanchem.com/app/template/landing%2CForensic.vm / Item#22713 Batch#0511784
Num Peaks: 144
41 41; 42 140; 43 16; 44 33; 45 2; 
50 10; 51 26; 52 14; 53 16; 54 12; 
55 30; 56 16; 57 6; 63 15; 64 5; 
65 78; 66 12; 67 47; 68 35; 69 30; 
70 45; 71 4; 73 16; 74 5; 75 7; 
76 5; 77 91; 78 45; 79 75; 80 19; 
81 20; 82 27; 83 3; 84 5; 87 2; 
89 23; 90 14; 91 310; 92 30; 93 8; 
94 37; 95 999; 96 267; 97 30; 98 33; 
101 2; 102 10; 103 56; 104 52; 105 200; 
106 34; 107 18; 108 8; 109 2; 115 14; 
116 9; 117 24; 118 41; 119 16; 120 7; 
121 4; 126 3; 127 4; 128 5; 129 11; 
130 38; 131 25; 132 52; 133 11; 134 9; 
135 9; 136 2; 137 21; 138 8; 139 10; 
141 2; 142 4; 143 8; 144 63; 145 36; 
146 51; 147 11; 148 3; 149 2; 154 2; 
156 6; 157 6; 158 24; 159 10; 160 37; 
161 5; 163 2; 164 2; 167 2; 170 3; 
171 4; 172 186; 173 15; 174 2; 177 2; 
182 3; 183 4; 184 84; 185 40; 186 38; 
187 15; 188 14; 189 2; 193 2; 195 2; 
196 2; 197 2; 199 2; 200 2; 201 80; 
202 34; 203 9; 207 12; 208 3; 209 2; 
224 12; 225 3; 226 48; 227 8; 239 2; 
251 2; 253 9; 254 448; 255 80; 256 10; 
265 2; 267 2; 281 8; 283 3; 293 13; 
294 2; 295 2; 297 811; 298 165; 299 18; 
327 4; 328 2; 331 2; 386 4; 

