Name: para-Fluoro Furanyl fentanyl 3-furancarboxamide isomer
InChIKey: XXKBQRKRYOZPGV-UHFFFAOYSA-N
Synon: 4-Fluoro Fu-F 3-furancarboxamide
Synon: p-Fluoro Fu-F 3-furancarboxamide
Synon: 4-Fluoro Furanyl fentanyl 3-furancarboxamide
Synon: p-Fluoro Furanyl fentanyl 3-furancarboxamide
Synon: N-(4-fluorophenyl)-N-(1-phenethylpiperidin-4-yl)furan-3-carboxamide
Formula: C24H25FN2O2
MW: 392
ExactMass: 392.190006
DB#: 4902
Comments: Provided by www.caymanchem.com/app/template/landing%2CForensic.vm / Item#22751 Batch#0512061
Num Peaks: 112
41 21; 42 82; 43 13; 44 25; 50 3; 
51 7; 52 3; 53 6; 54 7; 55 15; 
56 11; 57 10; 62 2; 63 6; 64 2; 
65 30; 66 6; 67 35; 68 22; 69 21; 
70 25; 71 3; 73 5; 74 2; 75 13; 
76 3; 77 36; 78 14; 79 33; 80 8; 
81 6; 82 18; 83 9; 84 5; 89 8; 
90 4; 91 141; 92 14; 93 4; 94 14; 
95 999; 96 141; 97 16; 98 9; 101 2; 
102 4; 103 29; 104 19; 105 100; 106 9; 
107 3; 108 3; 109 12; 110 5; 111 5; 
115 3; 117 5; 118 2; 120 2; 121 4; 
122 29; 123 9; 124 6; 126 2; 128 2; 
130 10; 131 4; 132 6; 133 7; 134 5; 
135 14; 136 18; 137 8; 138 5; 144 2; 
146 4; 147 3; 148 33; 149 23; 150 27; 
151 5; 158 3; 160 9; 161 3; 162 5; 
163 4; 164 9; 176 56; 177 11; 178 3; 
184 6; 185 5; 186 16; 187 4; 188 27; 
189 7; 190 2; 191 2; 205 19; 206 14; 
207 10; 208 2; 253 4; 258 262; 259 44; 
260 4; 281 2; 297 3; 299 2; 301 622; 
302 117; 303 13; 

