Name: meta-Methyl Furanyl fentanyl
InChIKey: MAUKPWKPNGATGI-UHFFFAOYSA-N
Synon: 3-methyl Furanyl fentanyl
Synon: m-Methyl Furanyl fentanyl
Synon: N-(1-phenethylpiperidin-4-yl)-N-(m-tolyl)furan-2-carboxamide
Formula: C25H28N2O2
MW: 388
ExactMass: 388.215078
DB#: 4906
Comments: Provided by www.caymanchem.com/app/template/landing%2CForensic.vm / Item#22844 Batch#0511783
Num Peaks: 136
40 2; 41 35; 42 124; 43 16; 44 33; 
50 7; 51 20; 52 10; 53 13; 54 10; 
55 24; 56 16; 57 10; 62 2; 63 14; 
64 5; 65 75; 66 11; 67 47; 68 32; 
69 29; 70 35; 71 4; 73 8; 74 4; 
75 4; 76 4; 77 76; 78 36; 79 64; 
80 15; 81 19; 82 25; 83 5; 84 6; 
89 21; 90 14; 91 328; 92 33; 93 10; 
94 32; 95 999; 96 234; 97 25; 98 17; 
99 2; 102 8; 103 51; 104 45; 105 177; 
106 26; 107 16; 108 7; 109 3; 115 13; 
116 8; 117 23; 118 37; 119 16; 120 9; 
121 4; 126 3; 127 6; 128 9; 129 9; 
130 44; 131 24; 132 48; 133 17; 134 7; 
135 5; 137 17; 138 8; 139 7; 140 2; 
141 2; 142 3; 143 8; 144 60; 145 34; 
146 52; 147 11; 148 2; 149 8; 154 2; 
156 6; 157 5; 158 26; 159 10; 160 36; 
161 4; 165 2; 168 2; 170 5; 171 4; 
172 189; 173 33; 174 5; 182 6; 184 74; 
185 28; 186 42; 187 13; 188 9; 191 2; 
193 2; 195 2; 198 2; 201 53; 202 26; 
203 5; 207 15; 208 4; 209 3; 212 2; 
224 11; 225 3; 226 44; 227 7; 253 5; 
254 501; 255 90; 256 10; 268 2; 281 6; 
282 2; 293 13; 294 3; 295 2; 297 917; 
298 184; 299 21; 327 2; 331 2; 341 2; 
386 3; 

