Name: para-Fluoro Furanyl fentanyl
InChIKey: MGEQOAJOFFXWTR-UHFFFAOYSA-N
Synon: 4-Fluoro Fu-F
Synon: p-Fluoro Fu-F
Synon: 4-Fluoro Furanyl fentanyl
Synon: p-Fluoro Furanyl fentanyl
Synon: N-(4-fluorophenyl)-N-(1-phenethylpiperidin-4-yl)furan-2-carboxamide
Formula: C24H25FN2O2
MW: 392
ExactMass: 392.190006
DB#: 4908
Comments: Provided by www.caymanchem.com/app/template/landing%2CForensic.vm / Item#22750 Batch#0511635
Num Peaks: 128
41 29; 42 117; 43 18; 44 47; 50 6; 
51 14; 52 7; 53 10; 54 9; 55 22; 
56 15; 57 15; 62 3; 63 10; 64 4; 
65 47; 66 8; 67 43; 68 30; 69 29; 
70 33; 71 3; 73 5; 74 3; 75 18; 
76 4; 77 51; 78 22; 79 49; 80 12; 
81 17; 82 25; 83 18; 84 7; 89 12; 
90 6; 91 217; 92 20; 93 7; 94 24; 
95 999; 96 194; 97 22; 98 11; 101 3; 
102 5; 103 43; 104 29; 105 139; 106 13; 
107 5; 108 5; 109 20; 110 10; 111 9; 
112 2; 115 5; 116 2; 117 8; 118 2; 
119 2; 121 8; 122 38; 123 11; 124 7; 
126 7; 128 2; 130 14; 131 5; 132 9; 
133 10; 134 7; 135 16; 136 23; 137 20; 
138 12; 139 5; 144 4; 146 6; 147 4; 
148 49; 149 31; 150 38; 151 7; 156 2; 
158 4; 160 15; 161 5; 162 9; 163 6; 
164 10; 165 2; 174 2; 175 3; 176 122; 
177 20; 178 3; 182 2; 184 13; 185 10; 
186 23; 187 7; 188 49; 189 11; 190 3; 
191 4; 193 2; 205 41; 206 25; 207 15; 
208 3; 209 2; 228 7; 230 28; 231 4; 
253 4; 258 435; 259 71; 260 8; 281 3; 
297 7; 298 2; 299 2; 301 894; 302 171; 
303 19; 304 2; 390 2; 

