Name: para-Chloro Furanyl fentanyl
InChIKey: AZXDRBNBIMRBJI-UHFFFAOYSA-N
Synon: p-Chloro Fu-F
Synon: 4-Chloro Fu-F
Synon: p-Chloro Furanyl fentanyl
Synon: 4-Chloro Furanyl fentanyl
Synon: N-(4-chlorophenyl)-N-(1-phenethylpiperidin-4-yl)furan-2-carboxamide
Formula: C24H25ClN2O2
MW: 408
ExactMass: 408.160456
DB#: 4911
Comments: Provided by www.caymanchem.com/app/template/landing%2CForensic.vm / Item#22807 Batch#0510568
Num Peaks: 165
41 36; 42 133; 43 20; 44 55; 45 2; 
50 9; 51 18; 52 8; 53 12; 54 12; 
55 25; 56 16; 57 10; 58 2; 62 3; 
63 17; 64 6; 65 50; 66 9; 67 45; 
68 32; 69 30; 70 37; 71 4; 73 16; 
74 6; 75 23; 76 8; 77 61; 78 28; 
79 54; 80 14; 81 15; 82 24; 83 5; 
84 6; 85 3; 89 15; 90 13; 91 214; 
92 22; 93 10; 94 29; 95 999; 96 208; 
97 24; 98 22; 99 11; 101 5; 102 11; 
103 49; 104 38; 105 152; 106 14; 107 4; 
109 2; 110 2; 111 43; 112 3; 113 15; 
114 3; 115 11; 116 5; 117 16; 118 4; 
119 3; 124 3; 125 8; 126 14; 127 13; 
128 8; 129 7; 130 44; 131 14; 132 13; 
133 4; 134 4; 135 5; 137 9; 138 35; 
139 17; 140 13; 141 5; 142 4; 143 4; 
144 9; 145 3; 146 4; 147 3; 148 2; 
149 2; 151 5; 152 13; 153 11; 154 9; 
155 4; 156 6; 157 5; 158 7; 160 14; 
161 2; 164 21; 165 20; 166 29; 167 10; 
168 9; 169 2; 170 2; 176 2; 177 3; 
178 7; 179 3; 180 8; 181 2; 182 5; 
183 2; 184 19; 185 13; 186 23; 187 8; 
188 7; 191 4; 192 84; 193 17; 194 30; 
195 7; 197 2; 204 29; 205 11; 206 13; 
207 19; 208 4; 209 4; 211 2; 221 34; 
222 18; 223 17; 224 8; 225 2; 239 7; 
244 4; 246 14; 247 3; 248 5; 249 2; 
253 8; 274 258; 275 48; 276 92; 277 15; 
278 2; 281 6; 282 5; 283 3; 313 6; 
315 3; 317 562; 318 109; 319 188; 320 35; 
321 3; 327 3; 331 2; 341 3; 406 3; 

