Name: para-Fluoro Tetrahydrofuran fentanyl
InChIKey: DNWBTPZLCFRPRR-UHFFFAOYSA-N
Synon: N-(4-fluorophenyl)-N-(1-phenethylpiperidin-4-yl)tetrahydrofuran-2-carboxamide
Synon: 4-Fluoro Tetrahydrofuran fentanyl
Synon: p-Fluoro Tetrahydrofuran fentanyl
Formula: C24H29FN2O2
MW: 396
ExactMass: 396.221306
DB#: 4924
Comments: Provided by www.caymanchem.com/app/template/landing%2CForensic.vm / Item#22752 Batch#0510697
Num Peaks: 144
40 5; 41 116; 42 136; 43 213; 44 61; 
45 3; 50 7; 51 13; 52 7; 53 10; 
54 11; 55 42; 56 22; 57 21; 58 3; 
61 2; 62 4; 63 10; 64 3; 65 33; 
66 4; 67 22; 68 38; 69 61; 70 61; 
71 820; 72 38; 73 10; 74 4; 75 18; 
76 3; 77 54; 78 25; 79 60; 80 14; 
81 9; 82 35; 83 25; 84 16; 85 2; 
89 11; 90 6; 91 144; 92 17; 93 6; 
94 24; 95 78; 96 169; 97 35; 98 12; 
101 2; 102 6; 103 52; 104 36; 105 244; 
106 22; 107 4; 108 6; 109 30; 110 20; 
111 32; 112 4; 115 5; 116 2; 117 10; 
118 4; 119 2; 121 6; 122 46; 123 16; 
124 11; 128 3; 129 3; 130 19; 131 7; 
132 10; 133 5; 134 9; 135 21; 136 38; 
137 32; 138 8; 139 16; 143 2; 144 5; 
146 6; 147 3; 148 48; 149 46; 150 53; 
151 10; 152 3; 153 2; 156 2; 158 4; 
160 15; 161 5; 162 9; 163 10; 164 293; 
165 34; 166 4; 174 2; 176 18; 177 8; 
178 5; 179 2; 181 3; 182 3; 184 15; 
185 11; 186 34; 187 10; 188 58; 189 10; 
190 3; 191 5; 192 8; 193 4; 205 19; 
206 29; 207 295; 208 42; 209 17; 210 3; 
218 2; 220 3; 231 5; 232 3; 253 5; 
262 16; 263 6; 277 2; 281 5; 282 2; 
297 3; 303 5; 305 999; 306 193; 307 21; 
308 2; 325 2; 327 2; 394 2; 

