Name: para-Fluoro Cyclopropyl fentanyl
InChIKey: CGLWFPGHBIADCN-UHFFFAOYSA-N
Synon: 4-Fluoro Cyclopropyl fentanyl
Synon: p-Fluoro Cyclopropyl fentanyl
Synon: N-(4-fluorophenyl)-N-(1-phenethylpiperidin-4-yl)cyclopropanecarboxamide
Formula: C23H27FN2O
MW: 366
ExactMass: 366.210741
DB#: 4925
Comments: Provided by www.caymanchem.com/app/template/landing%2CForensic.vm / Item#22749 Batch#0510698
Num Peaks: 148
40 4; 41 215; 42 139; 43 23; 44 68; 
45 3; 50 7; 51 14; 52 7; 53 9; 
54 12; 55 30; 56 23; 57 21; 58 3; 
59 2; 61 2; 62 3; 63 10; 64 3; 
65 40; 66 5; 67 23; 68 40; 69 576; 
70 76; 71 7; 73 15; 74 5; 75 23; 
76 5; 77 57; 78 26; 79 58; 80 14; 
81 8; 82 30; 83 20; 84 14; 85 2; 
89 13; 90 6; 91 193; 92 18; 93 5; 
94 21; 95 83; 96 143; 97 20; 98 8; 
101 2; 102 6; 103 51; 104 37; 105 181; 
106 17; 107 5; 108 5; 109 25; 110 13; 
111 48; 112 9; 115 7; 116 3; 117 10; 
118 2; 119 3; 121 6; 122 48; 123 16; 
124 11; 128 2; 129 3; 130 15; 131 6; 
132 11; 133 9; 134 10; 135 24; 136 41; 
137 19; 138 7; 139 5; 143 2; 144 5; 
145 2; 146 5; 147 5; 148 53; 149 40; 
150 61; 151 11; 152 3; 156 3; 158 2; 
159 2; 160 16; 161 6; 162 16; 163 11; 
164 357; 165 42; 166 4; 175 2; 176 39; 
177 14; 178 4; 179 11; 180 4; 182 2; 
184 11; 185 9; 186 25; 187 6; 188 15; 
189 3; 190 4; 191 8; 192 2; 193 4; 
204 2; 205 16; 206 19; 207 504; 208 74; 
209 9; 218 2; 232 81; 233 13; 246 4; 
247 2; 249 2; 253 6; 254 2; 267 2; 
275 999; 276 182; 277 17; 281 13; 282 4; 
283 3; 297 2; 325 2; 327 3; 331 2; 
341 3; 364 4; 365 2; 

