Name: .beta.-Hydroxythiofentanyl-d5 (Not Certified by NIST)
InChIKey: GLAAETOTOUGGSB-ZBJDZAJPSA-N
Synon: N-(1-(2-hydroxy-2-(thiophen-2-yl)ethyl)piperidin-4-yl)-N-phenylpropanamide-d5
Formula: C20H21D5N2O2S
MW: 363
ExactMass: 363.202883
DB#: 4567
Comments: Note: Spectrum not certified by NIST / Provided by www.caymanchem.com/app/template/landing%2CForensic.vm / Item #19598 Batch #0484441
Num Peaks: 218
41 66; 42 253; 43 54; 44 109; 45 103; 
46 4; 47 5; 48 1; 49 2; 50 18; 
51 42; 52 14; 53 21; 54 24; 55 53; 
56 37; 57 35; 58 30; 59 18; 60 5; 
61 22; 62 208; 63 23; 64 14; 65 58; 
66 37; 67 47; 68 56; 69 55; 70 66; 
71 21; 72 1; 73 20; 74 3; 75 9; 
76 12; 77 170; 78 29; 79 23; 80 28; 
81 19; 82 71; 83 37; 84 42; 85 146; 
86 10; 87 2; 89 3; 90 3; 91 45; 
92 24; 93 44; 94 212; 95 81; 96 138; 
97 111; 98 19; 99 12; 101 1; 102 3; 
103 3; 104 67; 105 26; 106 22; 107 21; 
108 11; 109 36; 110 83; 111 88; 112 33; 
113 142; 114 11; 115 15; 116 3; 117 36; 
118 63; 119 81; 120 23; 121 10; 122 6; 
123 7; 124 4; 125 8; 126 12; 128 4; 
129 3; 130 73; 131 51; 132 119; 133 54; 
134 13; 135 19; 136 17; 137 24; 138 16; 
139 8; 140 2; 141 2; 142 2; 143 3; 
144 14; 145 12; 146 45; 147 744; 148 90; 
149 11; 150 3; 151 2; 152 4; 153 8; 
154 41; 155 11; 156 9; 157 3; 158 75; 
159 27; 160 9; 161 2; 162 4; 163 2; 
164 5; 165 3; 166 1; 167 1; 168 1; 
169 1; 170 1; 171 1; 172 6; 173 6; 
174 2; 175 6; 176 1; 177 17; 178 2; 
179 3; 180 4; 182 2; 183 1; 186 1; 
187 13; 188 16; 189 35; 190 398; 191 71; 
192 14; 193 5; 194 3; 195 3; 196 2; 
197 3; 198 1; 203 1; 205 4; 206 5; 
207 188; 208 45; 209 10; 210 4; 211 2; 
212 1; 217 2; 218 1; 219 1; 220 1; 
221 11; 222 2; 223 4; 233 1; 235 1; 
237 1; 239 1; 241 1; 247 1; 248 6; 
249 98; 250 999; 251 174; 252 14; 253 28; 
254 4; 255 4; 265 1; 266 1; 267 1; 
268 2; 269 3; 270 3; 271 2; 281 6; 
282 5; 283 3; 284 1; 293 1; 295 1; 
301 1; 311 1; 313 1; 315 1; 316 1; 
325 4; 326 1; 327 3; 328 2; 330 1; 
331 6; 332 3; 341 2; 342 1; 343 1; 
344 4; 345 25; 346 14; 347 2; 348 1; 
355 9; 356 1; 358 1; 

